LAMMPS (17 Nov 2016)
dimension			2
units			lj
atom_style			molecular
boundary p p p
atom_modify			sort 0 1

read_data			sim_4NRIY8AQ0Y_data.data
  orthogonal box = (-75 -50 -1) to (75 50 1)
  1 by 1 by 1 MPI processor grid
  reading atoms ...
  127 atoms
  scanning bonds ...
  2 = max bonds/atom
  scanning angles ...
  1 = max angles/atom
  reading bonds ...
  120 bonds
  reading angles ...
  120 angles
  2 = max # of 1-2 neighbors
  2 = max # of 1-3 neighbors
  4 = max # of 1-4 neighbors
  6 = max # of special neighbors
neigh_modify			every 1 delay 1
bond_style			harmonic
bond_coeff			1 30 1.3
angle_style			harmonic
angle_coeff			1 30 180
pair_style			lj/cut 5.04
pair_coeff			* * 0 0 0
pair_coeff			1 4 5.0 1 2.5
pair_coeff			1 5 7.03125 1 2.5
pair_coeff			1 6 9.0625 1 2.5
pair_coeff			1 7 0.9375 1 2.5
pair_coeff			1 8 4.375 1 2.5
pair_coeff			1 9 7.5 1 2.5
pair_coeff			1 3 100 4.5 5.0
pair_coeff			1 1 100 1.0 1.12246
pair_coeff			1 2 100 1.0 1.12246
pair_modify			shift yes
dump			id all xyz 100 ../out/sim_4NRIY8AQ0Y_out.xyz
group			move type 1
118 atoms in group move
group			anchor type 2
2 atoms in group anchor
group			protein type 3 4 5 6 7 8 9
7 atoms in group protein
velocity move create 1.0 1
velocity protein set 0 -2 0
fix			0 all enforce2d
fix			1 move nph x 0.0 0.0 1.0 y 0.0 0.0 1.0 couple xy
fix			2 protein rigid/nve molecule
1 rigid bodies with 7 atoms
fix			3 all langevin 1 1 1 1000

thermo			300
timestep			0.005
run			100000
Neighbor list info ...
  1 neighbor list requests
  update every 1 steps, delay 1 steps, check yes
  max neighbors/atom: 2000, page size: 100000
  master list distance cutoff = 5.3
  ghost atom cutoff = 5.3
  binsize = 2.65 -> bins = 57 38 1
Memory usage per processor = 8.25678 Mbytes
Step Temp E_pair E_mol TotEng Press Volume 
       0    1.0217427            0    3.4532334    4.4226822 -0.00049187953        15000 
     300   0.98740079            0    3.3856269    4.3224914 0.00093327111    14960.104 
     600    1.1167656            0     3.216814    4.2764223 0.0056816936    14797.549 
     900   0.92702272            0    3.3614161    4.2409928 -0.0035932912    15198.937 
    1200   0.93667652            0    3.3260493    4.2147857 -0.0043721168    14931.207 
    1500   0.94059716            0    3.3864745    4.2789309 0.0010800523    14538.122 
    1800   0.90076872            0    3.2418447    4.0965111  0.001666444    14457.677 
    2100    1.0958669            0     3.497212    4.5369912 0.0017794993    14598.985 
    2400    1.0603589            0    3.5105293    4.5166179 -0.0024563935    14766.708 
    2700    1.0721919            0    3.3415689    4.3588848 0.00014726737    14933.775 
    3000    1.0254218            0    3.5647617    4.5377013 -0.0030128827    15041.924 
    3300    1.0375987            0    3.4044649    4.3889582 0.0045337318    14609.556 
    3600    1.1168308            0    3.3719609     4.431631  0.011161684    14254.291 
    3900    1.0031436            0     3.543746    4.4955476 0.00057589274    14416.729 
    4200    1.0148722            0    3.4267046    4.3896346 -0.0010123915    14774.562 
    4500    1.0917447            0    3.4837315    4.5195994 -0.0064374393    15381.451 
    4800    1.1396007            0     3.411905    4.4931797 0.0014157265    14772.382 
    5100   0.94037858            0    3.4026473    4.2948963 -0.0025803788    15302.233 
    5400   0.95795515            0    3.4890164    4.3979424 -0.0072642946    15631.367 
    5700   0.92728502            0    3.3780312    4.2578568 0.0026158507    15153.976 
    6000    1.0280584            0     3.474827    4.4502683 0.0048937698    14957.926 
    6300    1.0085073            0    3.2863893    4.2432801 -0.0057318331    15703.006 
    6600   0.85545026            0    3.2865277    4.0981951 -0.006419016    15814.262 
    6900    1.0560457            0    3.3507805    4.3527766 0.0040830334    15109.101 
    7200   0.99962854            0    3.4030988    4.3515652 0.0016300063    15046.416 
    7500   0.97732669            0    3.4850056    4.4123116 -0.0011737897    15332.712 
    7800    1.0255011            0    3.4787554    4.4517702 -0.0050943922     15952.94 
    8100    1.0439807 -0.00020053714    3.5335193    4.5238674 -0.001808307    15668.212 
    8400    1.0123899 -0.00028069305    3.5745038    4.5347978 0.0004504529    15459.116 
    8700    1.0302754 -0.00012657958     3.449061    4.4264793 -0.0021956842    15690.311 
    9000   0.94894391  -0.13025975    3.6000126    4.3701288 -0.0034558679     15742.15 
    9300   0.92976051  -0.19192402    3.8060219    4.4962722 -0.0014858865    15208.297 
    9600   0.90065615  -0.21878905    3.6799701    4.3157407 0.00081805533    15238.753 
    9900   0.95616071  -0.18317626    3.6571126    4.3811596 -0.008683419    15701.262 
   10200    1.0013612  -0.21547358    3.7306056    4.4652425 -0.0067389844    15331.234 
   10500    1.0182936  -0.18440233    3.7234696    4.5052435  0.006112312    15764.797 
   10800    1.1634283  -0.15850904    3.6031264    4.5485001 0.0073108703    15608.295 
   11100    1.1176542  -0.11830093    3.7487933    4.6909438 0.0060047552    15715.629 
   11400    0.9306061  -0.12278728    3.6164532    4.3766426 -0.00045992135    15430.831 
   11700   0.80975831  -0.13399976    3.6343092    4.2686234 -0.0049427527    16359.891 
   12000    1.0360362  -0.22685193    3.6540349    4.4101937 -0.0060573091    15847.415 
   12300   0.98921756  -0.19428964    3.6460824    4.3903811   0.01338128    16054.374 
   12600    1.0068339  -0.22050524     3.652418    4.3872158  -0.00322806    16561.488 
   12900   0.91512859  -0.21732848    3.8070036    4.4579664 0.0041873506    15560.664 
   13200   0.89544229  -0.19468315    3.7108636     4.365793 -0.0034827794    15924.108 
   13500   0.91435528  -0.22324496    3.9361175    4.5804301 -0.0017322149    16261.594 
   13800   0.95303667  -0.19452651    3.7970754     4.506808 -0.00012968824    16573.008 
   14100   0.94178045  -0.16886559    3.7305039    4.4552174  0.018776786    16160.297 
   14400   0.87785183  -0.19023911    3.8129903    4.4556736 0.0061374944    16262.333 
   14700   0.94850207  -0.23623749    3.7927878     4.456507 0.0011744446    16286.591 
   15000    1.1112111  -0.22506404    3.7398601    4.5691341 -8.6174616e-05    16539.784 
   15300    1.1289174  -0.20467323     3.778085    4.6445499 0.00083726428    16288.886 
   15600   0.93770142  -0.19223888    4.0022221     4.699692 0.00083824781    15892.477 
   15900    1.1227933  -0.17953223    4.0614538    4.9472491 -0.0089013814    16636.845 
   16200    1.1389054  -0.19090509    3.7779812     4.667691 0.0096213002    16535.125 
   16500    1.1395315  -0.18882663    3.9809113    4.8732936 -0.0098123291    16823.319 
   16800   0.96963252   -0.1896464    3.8253281    4.5556873 -0.014261213    17157.165 
   17100   0.94309926  -0.21361886    3.8243035     4.505515  0.017236734    15972.165 
   17400   0.98033222  -0.19354292    3.8580558    4.5946706  0.019030107     16373.23 
   17700   0.86330631  -0.18646044    4.0577998    4.6904607 -0.0014499062    16251.732 
   18000   0.98439683  -0.19601734    3.8497699    4.5877669 -0.0053778695    16905.138 
   18300    1.0727075  -0.17922563    3.9999723    4.8385518 -0.014096407    16702.149 
   18600   0.92728943  -0.20378009    3.8582444     4.534294 -0.0053200324    16350.421 
   18900    1.0294939  -0.21653477    4.0394678    4.7997363 -0.0065197029    16448.094 
   19200   0.88701216  -0.17940851     4.024139    4.6863444 -0.011351651    16542.347 
   19500    1.0145593  -0.18863132     3.884611    4.6586127 0.0031914918    16006.014 
   19800   0.95583284   -0.2240442    4.1247288    4.8075968 -0.0043005917     16548.34 
   20100    1.0078386  -0.18044606    4.1350651    4.9108753 0.0011547386    16555.541 
   20400     1.117157  -0.19991216    4.2069692    5.0670367 -0.0026629675    16335.806 
   20700    1.0255361  -0.18803606    4.2506242    5.0356362 -0.010007711    16497.366 
   21000   0.92239534  -0.15355231    4.2051846    4.9268184 -0.0094488749     17128.35 
   21300   0.91141008  -0.19328298     4.263915    4.9353951 -0.007217867    16758.546 
   21600   0.88913648  -0.18368286    4.3786133      5.03856 0.0018765246    16886.861 
   21900    1.0998155  -0.21664457    4.4942569     5.321138  0.017869915    15964.117 
   22200    1.0768954    -0.199487    4.4029703    5.2252621 -0.0012510592    16815.602 
   22500    1.0537642  -0.22823817    4.4495725    5.2211658 0.0027805868    16799.215 
   22800    1.1363436  -0.20168469    4.4385488    5.3150483 0.0098900202    17317.413 
   23100   0.88442122  -0.15132505    4.1454664     4.833297 -0.0076840533    16931.265 
   23400   0.98544424  -0.15926013    4.3582626    5.1340106 -0.0028900081    16826.778 
   23700   0.91330102  -0.20549252    4.2679303    4.9289951 -0.00025323683    17097.811 
   24000   0.86785968  -0.14241883    4.3266709    5.0076938 -0.0024890784    16682.568 
   24300     1.007516  -0.20686256    4.3914982    5.1405858 0.00094263369    16732.082 
   24600   0.90406151  -0.20237585      4.33801    4.9934248  0.007792356    17174.648 
   24900    1.1086917  -0.20652514    4.3126501    5.1580727 -0.0012568904    16892.177 
   25200    1.0842448  -0.19157088    4.3076252    5.1448062 -0.0020547529    16885.002 
   25500    1.1305876  -0.18118393    4.3579611       5.2495 0.0092234825    16818.281 
   25800   0.88732281  -0.15586802    4.4384289    5.1244696 -0.0056593498    16736.887 
   26100    0.8755227   -0.2200707    4.3534067    4.9640484 -0.0071253968      16867.3 
   26400    0.8315322  -0.19732263    4.4029969    4.9946478 -0.0027990604    16638.961 
   26700    1.0106404  -0.13983606    4.1181181    4.9371967 0.0096278839    16532.908 
   27000   0.96386068  -0.14693368    4.2197594    4.9873549 0.0020088702    16420.433 
   27300    1.0681143  -0.17970718    4.4466595    5.2803993 -0.013433468    17450.758 
   27600   0.92866416  -0.19069357     4.287052    4.9774926 -0.0098510793     16612.53 
   27900    1.0055979  -0.18787933    4.1963272    4.9625781 0.0081952999    16522.682 
   28200   0.91094569   -0.1591182    4.2176025    4.9228068 -0.0049318341    16399.541 
   28500    1.0831914  -0.14587344    4.4579424    5.3398214 -0.0015347067    16223.862 
   28800    0.9423437  -0.12792662    4.3942985    5.1604854  -0.01034634    17171.228 
   29100    1.0118005  -0.20901702    4.3084574    5.0594558 -0.001221063    16493.432 
   29400    1.1403998  -0.17895073     4.385689    5.2887711 0.0099139611    16228.413 
   29700   0.95139162  -0.18724283     4.394056    5.1095115 -0.013064093    16884.587 
   30000   0.96749029  -0.15530294    4.3422394    5.1049095 -0.0041627614    16753.564 
   30300   0.94510293  -0.20620664    4.3198958    5.0104207 0.0021942466    16385.971 
   30600    1.0083318  -0.13068606    4.1764228     5.002461 0.00086822276    16798.457 
   30900    1.0098738  -0.11102134    4.2011908    5.0483569 0.00086070714    16555.855 
   31200     1.121733  -0.15452903    4.1496324    5.0594248 -0.0035942551    16091.302 
   31500   0.99356194  -0.16644719    4.2530035    5.0292667 0.0018223131    16253.029 
   31800   0.99997094  -0.14137346      3.99786    4.8052778 -0.0029110601    16470.525 
   32100   0.98301564  -0.15125571    4.1792162    4.9606643 -0.0027546971    15923.566 
   32400    1.0144479  -0.21045216    4.4997019    5.2517771 0.00065682882    16369.166 
   32700    1.0368561  -0.16862422    4.2375646    5.0527291 -0.0020672962    16298.019 
   33000    0.8808178  -0.19028834    4.2778365    4.9232847 0.0056886394    16163.432 
   33300   0.88702015  -0.21152763    4.1733308    4.8034247 -0.0025207374    16009.709 
   33600   0.95473799  -0.19659342    4.1206754    4.8299554 0.0041642721    16599.043 
   33900   0.94021708  -0.21212619    4.2177543    4.8977238 0.0087529728    15955.366 
   34200    1.0128059  -0.21139881    4.1680992    4.9176698   0.01432926    15880.962 
   34500   0.88986044  -0.19663348    4.0620286    4.7097115 -0.0092524071    16157.192 
   34800   0.97071854  -0.20335793     4.079742    4.7974202 -0.0032511018    16989.693 
   35100     0.971834   -0.2287888    4.2996968    4.9930024 0.00017710249    15962.869 
   35400    1.0559146  -0.21309251     4.333024    5.1218032 -0.0070525427    16043.474 
   35700   0.93158344  -0.20357551    4.3376887    5.0180171 0.0066984677    15623.602 
   36000   0.84224764  -0.18571313    4.2686411    4.8820685 -0.011028958    15906.907 
   36300    1.1452195  -0.18802069    4.3189155    5.2175007 0.00085801695    16304.372 
   36600    1.1411663  -0.18790962    4.2534218    5.1482723  0.021714358    15863.126 
   36900    1.0319671  -0.20324041    4.3846555    5.1605649 -0.010564337     16143.68 
   37200    1.0240314  -0.19721171    4.5408522    5.3152609 0.0098171978     16054.18 
   37500    1.0402876  -0.17965881    4.4636703    5.2710561 -0.00088886621     16287.32 
   37800    1.0080746  -0.18455049    4.4817502      5.25368 -0.0087698858    16804.339 
   38100    1.0574653  -0.19533101    4.5751647    5.3831767 -0.0062230887    15879.105 
   38400    1.0686436   -0.1734822    4.3067599    5.1472269  0.012136626    16001.798 
   38700    1.0247859   -0.2036951    4.2742848    5.0429259 -0.0048514617    15924.932 
   39000   0.94494349  -0.20656264    4.4735752    5.1635928  0.011028683    16097.693 
   39300    1.0456199  -0.20562584    4.5916097    5.3780878 -0.0026760839     16093.19 
   39600    1.0684492  -0.18196544    4.5072532    5.3390525  0.030622495    15240.725 
   39900     1.126782  -0.20566531    4.3468436    5.2102904 -0.005634627    15913.264 
   40200   0.95062868  -0.19482684    4.4770977    5.1842453  0.018397901    15262.495 
   40500   0.91987308   -0.1683501     4.403808    5.1082508 -0.0014835388     15789.91 
   40800   0.98990672  -0.20845144    4.4415608    5.1723516 -0.0049741461     15631.71 
   41100   0.96584187  -0.21055657    4.4383334    5.1441858 -0.0090764654    15515.635 
   41400    0.9722353  -0.20609762    4.2686032    4.9849808 -0.00059663191    15358.014 
   41700   0.96880992  -0.22658976    4.4814106     5.174046 -0.0035651841    15153.948 
   42000   0.97337972  -0.20696977    4.4913895    5.2079808 0.0059333903    15434.787 
   42300   0.91981015   -0.2205106    4.4519928    5.1042154 -0.0052481639    15163.324 
   42600    1.0322108  -0.19491246    4.2639407    5.0484094 0.0019546787    14758.636 
   42900   0.84931362  -0.21030067    4.4394091    5.0349533 -0.016190015    15382.141 
   43200   0.93677158  -0.14091444    4.2761031    5.0240152 -0.0054392385    14709.872 
   43500   0.88393788  -0.23911993    4.3567613    4.9563383 0.0086429796     14715.64 
   43800    0.8586216  -0.22034733    4.4302052    5.0245342 -0.0060281389    15085.857 
   44100    1.1238636  -0.16840722    4.2921317    5.1900675 0.0068607486    15223.833 
   44400     1.041698  -0.15333003    4.4371129    5.2721656 -0.0021651489    15277.986 
   44700   0.84151841  -0.17627108     4.421267    5.0434445 -0.005034742    15343.858 
   45000    0.8216058  -0.14687472    4.4159789    5.0486593 -0.0011328033    15231.684 
   45300   0.87051293  -0.18232537    4.4009746    5.0446084  0.000363683    15351.352 
   45600    1.0254095   -0.1575011    4.3698814    5.1853082 -0.0026532616    15765.478 
   45900   0.77076983  -0.12833874    4.3681826    4.9711649 -0.0090232505    15540.894 
   46200    1.1034894  -0.12318072    4.3797256    5.3035565 0.00086026714    15195.213 
   46500   0.97060744   -0.1195151     4.410761    5.2121766 -0.00080762824    15314.382 
   46800    0.9742803  -0.13266625    4.4089418    5.2006911 0.0080478786        15482 
   47100    1.1488005  -0.18723883     4.378173    5.2809378  0.011249799    15832.089 
   47400    1.0567555  -0.12434468    4.3551639    5.2334889 -0.0063390754    15524.553 
   47700   0.98286877  -0.21854002    4.4046025     5.118627 -0.005446116    15557.193 
   48000    1.1669035  -0.20147067     4.278205    5.1839144 -0.0022377933    15265.687 
   48300    1.0269846  -0.16918595    4.4184118    5.2236483 -0.011353954    15823.308 
   48600    1.1317921  -0.18867544    4.4954589    5.3806492 -0.0065065495     15941.65 
   48900    1.0476106  -0.20599865    4.1571821    4.9451761  0.012277682    15222.998 
   49200    0.9965395  -0.17689052    4.2794786    5.0481236 -0.0066756456    15433.581 
   49500    1.0195004  -0.17058122    4.3630771    5.1598171 -0.013006593    15405.818 
   49800   0.96923309  -0.20257163    4.2290288    4.9460839 0.0073219088    15117.381 
   50100   0.85823575  -0.21548579    4.0978959    4.6967204 -0.0001421204    15098.132 
   50400   0.80197553  -0.23121613    4.2062017    4.7359151 -0.0091289017    15544.402 
   50700     1.052516  -0.23226475    4.1081016    4.8744839 0.0065865515    15191.245 
   51000    1.0156865  -0.19433923    4.1312415    4.9006048 -0.011917077    15842.149 
   51300    1.0283947   -0.2122782    3.9592372    4.7227192  0.010528875    15620.372 
   51600     1.028938  -0.20165614    3.9791679    4.7537876 0.0069192737    15535.679 
   51900    1.2207417  -0.17294719    4.1798337    5.1651493 -0.0014725855    15622.388 
   52200    1.1678269  -0.13281769    4.0565702    5.0318088  0.010408076    15613.925 
   52500   0.97281362  -0.17067957    4.2067171    4.9590614  0.019945961    15464.233 
   52800    0.9009607  -0.21031536    4.0699693    4.7145025  0.012785149    15580.944 
   53100   0.98208666  -0.21455742    3.9973079    4.7145729 -7.5167376e-05    15164.729 
   53400    1.2029241  -0.22188081    4.0419673    4.9614437 0.0029702079    15417.316 
   53700    1.1273927  -0.23188084    4.2074642    5.0452748 -0.0031372743    14895.524 
   54000    1.0011925  -0.19992801    4.2002797     4.950302 0.0030883645    14735.925 
   54300   0.85943716   -0.2266497    4.3538157    4.9426162  0.004788717    15292.597 
   54600    1.1251521  -0.17800023    4.1064783    4.9960436 0.0076873255    15441.781 
   54900   0.87461992  -0.23976823    4.2953714    4.8854591 -0.0005245814     15653.12 
   55200   0.87942251  -0.22119623    4.2809875     4.894204 -0.0090000323    15811.278 
   55500    0.9411201  -0.23082123    4.2828182    4.9449495 -0.0040939642    14944.467 
   55800    1.0274937  -0.19910067    4.2350968    5.0109016 -0.0051536321    15326.731 
   56100   0.87726732  -0.20854301    4.5163348    5.1401596 -0.010514674    15551.076 
   56400   0.84929057  -0.22079279    4.3882914    4.9733216  0.007642582    15203.773 
   56700    1.0116938  -0.23902534    4.3408199    5.0617087 -0.0025389806    15224.947 
   57000   0.80578928  -0.23005031    4.4991196    5.0336174 0.0085686747    15472.753 
   57300    1.0658568  -0.21066785    4.2147328      5.01537 0.0084364144    15541.201 
   57600    0.9525557  -0.22726703    4.3737436    5.0502794 0.00031428132    15823.843 
   57900   0.95722743  -0.21616233    4.3902596    5.0823328 -0.0021308104    15962.916 
   58200    1.0607823  -0.23134025    4.3209549    5.0961049 -0.0048069509    15662.737 
   58500    1.1894043   -0.1900173    4.3481849     5.286697 -0.00068114217    15799.576 
   58800   0.95802939  -0.22534143    4.4390578    5.1227128 -0.0096440337    15383.738 
   59100    0.9583189  -0.18156689    4.3217496    5.0494538 -0.0084675653    15467.929 
   59400   0.88310648  -0.23536746    4.4080774     5.010618  0.015062655    15286.538 
   59700    1.0341459  -0.18863921    4.2747958    5.0673737  0.011399847     15762.46 
   60000   0.90963798  -0.23480472    4.3604466    4.9887236 0.0019846099    15782.333 
   60300    1.2190923  -0.20963433    4.4260868    5.3731503 -0.0045393538    15367.965 
   60600   0.88774402  -0.20137021    4.5681627    5.2091008  0.011067384    16030.811 
   60900   0.99408798  -0.20283286    4.4401472    5.1805238 -0.001840477    16113.661 
   61200   0.98111626  -0.22285904    4.4910369    5.1990795 -0.0010453038    15895.125 
   61500    1.1777068  -0.20426017    4.6579831    5.5711534 -0.0031559735     16262.94 
   61800   0.94709417  -0.21219759    4.6387158     5.325139 0.0019445651    15410.715 
   62100   0.95927404  -0.22913382    4.5327919    5.2138354 0.0088957617    15788.982 
   62400    1.0656443  -0.21456225    4.6481761    5.4447174 -0.014451226    15751.917 
   62700     1.114127  -0.21084201    4.7328238    5.5790865 -0.0035887264    15631.875 
   63000    1.1114197  -0.23346162     4.622708    5.4437824 0.0049971193    15681.653 
   63300    1.0942799   -0.2139237    4.4776049    5.3019546 -0.0027003446    15933.467 
   63600   0.99760989  -0.22342226    4.5305896    5.2537184 -0.0060863846    16031.039 
   63900    1.0810984  -0.19741105    4.5841351    5.4124906 -0.00079972392     16743.33 
   64200    1.1944273  -0.21452414    4.5470762    5.4658472 -0.00035285878    16287.394 
   64500    1.0422211   -0.2098385    4.7079353    5.4869758 -0.0019726905    16322.771 
   64800    1.0224286  -0.22132417    4.5987376     5.347513 -0.0074212854    16310.829 
   65100    1.0714632  -0.17528809     4.603265    5.4446014   0.00475439    15569.167 
   65400   0.94164226  -0.19150591    4.7271818    5.4291238 -0.0053711725    15810.743 
   65700    1.0839214  -0.19245163    4.6412008    5.4771943 0.0022001812    16118.462 
   66000   0.95239162  -0.24042914    4.8310449    5.4942629 0.0018380209    15650.691 
   66300    1.0912278  -0.14155331    4.7110396    5.6048638 -0.0064581787    16512.326 
   66600    1.0631581  -0.19586617    4.7958765    5.6087548 -0.0056508125    16130.725 
   66900   0.92419789  -0.22734017     4.783989    5.4335452 -0.009589723     16102.78 
   67200    1.0263051  -0.17046674    4.8039239    5.6072349 -0.0025196787     16117.74 
   67500   0.98032166  -0.22852022    4.8747938    5.5764213 0.0096914249    16053.047 
   67800   0.94574442  -0.19118364    4.8707005     5.576857 -0.0027882448    16305.766 
   68100   0.91038915   -0.1804102    5.0152996    5.6986838 -0.0070585687    16263.905 
   68400    1.0661691   -0.1421021     5.081026    5.9505252 -0.0046621977    16487.131 
   68700     1.021047  -0.19193844    5.0121245    5.7889748 0.0022005352    15886.733 
   69000    1.0651206  -0.18510358    5.1427662    5.9682692 -0.00013426288    16783.392 
   69300   0.95301869    -0.137746    4.9305707    5.6970668 -0.0086522905    16021.904 
   69600   0.91861082   -0.2069424    4.8863178    5.5509707 0.0016835099    15779.406 
   69900   0.83200298  -0.16858451    5.0345468    5.6553825 -0.0046742902    16354.606 
   70200   0.84918317  -0.21115024    5.1695316    5.7641024  0.004826046    15010.172 
   70500    1.0004272  -0.18668408    4.9633312    5.7258713 -0.012071288    16160.111 
   70800    1.0059477  -0.21627919    5.1519247    5.8901077  0.004832519    16231.254 
   71100   0.92908854  -0.17763709    5.2723596    5.9762593 -0.0011523247    15973.372 
   71400    1.1412728  -0.20802813    5.1317706    6.0066037  -0.00223506    15903.604 
   71700    0.9628972  -0.21062212    5.1786599    5.8816528 -0.0053712716    15734.517 
   72000   0.94176958   -0.2092576    5.2058658    5.8901769 0.0062618793    15549.221 
   72300    1.0916682  -0.12556319    5.1621412    6.0723734 -0.0015348536    16204.419 
   72600   0.82576153  -0.15724564    5.1864103    5.8126628 -0.011740829    15915.691 
   72900    0.9730204  -0.23271928    5.2306769    5.9211777 0.0050867358    16259.454 
   73200   0.96326186  -0.12771834    5.0329355    5.8191782 0.0028042642    15538.445 
   73500     1.278042  -0.19996959    5.1896263    6.2022871 0.0035420218    15997.029 
   73800    1.1412308  -0.15495976     5.128015    6.0558766 -0.014830153      16720.1 
   74100   0.99977544  -0.15351765    5.0891319    5.8842201 -0.0064842508    15846.697 
   74400     1.016116  -0.24386446    5.1591113     5.879357 -0.0043307755    16252.606 
   74700    1.1084537  -0.23442643    5.1944573    6.0117527 0.0009948766    16257.006 
   75000   0.96369524  -0.18047339    5.2766127    6.0105116  0.005986075    15690.877 
   75300   0.98601317  -0.20821904     5.248135    5.9754639  0.002565908    15982.585 
   75600    1.1184869  -0.20640975    5.3567217    6.2115535 -0.0021842777    15688.585 
   75900   0.92019454   -0.2241572    5.0514788    5.7004196 -0.010638536    15533.806 
   76200    1.0396407  -0.24092086     5.205996    5.9515059 -0.0094474906    15804.407 
   76500    0.8739306  -0.21479518    5.1059151    5.7203217 -0.0076711423    15349.137 
   76800    1.0455561  -0.16482157    5.0248439    5.8520657  0.011941297    14773.378 
   77100    1.0539719  -0.22891921    5.2035147    5.9746239 -0.0083156213     15490.47 
   77400    1.1166693  -0.21737898    5.1822533    6.0243912  0.012781586    15074.199 
   77700   0.90783327  -0.17644884     5.195802    5.8807225 -0.011653727    15263.269 
   78000    0.9768792  -0.18003396    5.1645841    5.9114316 -0.0013553243    14776.146 
   78300   0.86891957  -0.19682909    5.1095811    5.7371994 -0.0029834212    14945.006 
   78600   0.94171725  -0.20873431    5.3262151    6.0109999 -0.0066408171    14867.655 
   78900   0.97131169   -0.1483963    5.2624339    6.0356365  0.012658651    14595.306 
   79200    1.0173982  -0.19081285    5.1060893    5.8806031 -0.010700343    15076.705 
   79500     1.036604  -0.20904138    5.2002668    5.9747749 0.00091817954    13990.934 
   79800   0.90228547  -0.16925955    5.0801238    5.7669698 -0.011290136    14473.549 
   80100   0.89088223  -0.21573366    5.2847015    5.9142537 -0.0040965366    14438.161 
   80400    0.9318086   -0.1548867    5.1794533    5.9086842  0.005635466    14126.932 
   80700    1.0370906  -0.21071338    5.1598914    5.9331892 0.00043427862    14508.202 
   81000    1.0006065  -0.16238406    5.1942386    5.9812489 0.0038368661    14793.307 
   81300    1.0556182  -0.22821218     5.145398    5.9187763 0.0022331776    15232.986 
   81600   0.82606056  -0.16929979    5.1592681    5.7737502 -0.0083627022    15250.207 
   81900     1.145789  -0.21550496    5.1516002    6.0232416 0.0010138455    14902.832 
   82200    1.0493084  -0.21143503    5.2523838    6.0365524 0.0044078191     15012.65 
   82500   0.94209736  -0.23840309    5.2529281    5.9084048 -0.0098533333    15392.572 
   82800   0.97950996  -0.21177246    5.1650318    5.8826369 0.0046812856    15395.662 
   83100    1.0647624  -0.20453006    5.2803084     6.086045 -0.002342942    14726.866 
   83400   0.87320594  -0.19365059    5.2061336    5.8409973 -0.010620278     15263.94 
   83700    1.2378927  -0.19638749    5.2450398    6.2231883 -0.0056405876    15814.918 
   84000   0.87153954  -0.17962426      5.28642    5.9337289 0.0082636613     15381.75 
   84300    1.0094925  -0.21980143    5.1560336    5.8940577 -0.0062929952    15752.745 
   84600    1.1028857  -0.13265914    5.1643691    6.0781488 0.0067305691    15993.837 
   84900   0.87415827  -0.20838317    5.1568699    5.7779046 -0.00017490349    15138.288 
   85200   0.90458518  -0.17068177    5.2085885    5.8961942  0.003908093    15056.458 
   85500    1.1094273  -0.17337201    5.3247945    6.2040681 0.0053043585    14657.713 
   85800    1.1885942  -0.23029353    5.4115312    6.3089983 -0.0025510026    14859.261 
   86100    1.0081914  -0.21124619    5.4027004    6.1480453 -0.0047118365    14868.089 
   86400   0.93224083  -0.22399362    5.3988394    6.0593735 0.0079848662    14554.065 
   86700    1.0731684  -0.18609223    5.3070029    6.1391532 0.0013643334    15326.502 
   87000    1.0388013  -0.12672113    5.3368011    6.1957143 -0.0081431382    15010.256 
   87300    1.0886598  -0.17128506    5.2163595    6.0780154 0.0050045697     14840.69 
   87600    1.0019934  -0.16704667    5.2691263      6.05279 0.0059041843    15091.823 
   87900   0.94773223  -0.20560346    5.2934681    5.9870909 -0.012354867    15636.223 
   88200    1.0494115  -0.20597431    5.3927738    6.1825009 -0.0087798651    15016.915 
   88500   0.92530516  -0.23385908     5.384178    6.0282659 -0.0090541598    15142.846 
   88800    1.0514498  -0.22351209    5.2479856    6.0221089 9.7391243e-05     14890.49 
   89100   0.91095095   -0.2125622    5.3821493    6.0339146 -0.0063547364    14816.016 
   89400   0.96044826  -0.21884162    5.2501004    5.9425502 -0.009843525    15191.389 
   89700   0.99355401  -0.17821728    5.3414068    6.1058924 -0.013833759    15014.252 
   90000    1.0320414  -0.20959535    5.2602648    6.0298899 -0.0088426146    14739.179 
   90300   0.93270403  -0.22469185    5.3244159    5.9846913 -0.0060132907    15324.998 
   90600   0.87762051  -0.23540128    5.3284959    5.9257976  0.007608108    14470.582 
   90900   0.96952277  -0.21443322    5.2679652    5.9734335 -0.00068437201    15395.549 
   91200   0.97033104  -0.15245337    5.2099413    5.9781564 0.0070390655      15034.2 
   91500    1.0027984  -0.18438442    5.1249526    5.8920422 0.0028100381    14954.207 
   91800   0.86767278  -0.15057626    5.2423114    5.9149995 -0.009813368     15040.57 
   92100    1.0083361  -0.22582271    5.2874427    6.0183483 -0.0041598126    15077.523 
   92400   0.95570473  -0.22206381     5.302539    5.9872659 0.0058590133    14771.586 
   92700   0.88978079  -0.22529669    5.3500574    5.9690015 -0.0038152042    15380.956 
   93000   0.98849236  -0.16778291    5.2787223    6.0488396 -0.009334162     15212.58 
   93300    1.0339325  -0.18393222    5.3833863    6.1804688 -0.0033792837    14419.638 
   93600    1.0468453  -0.16835472     5.337645    6.1625568 -0.0055486565    14632.118 
   93900   0.97220884  -0.15682186    5.4909572    6.2565854  -0.00375884    14863.985 
   94200   0.89682155  -0.18243315    5.2672321    5.9357202 -0.002231132    14363.057 
   94500   0.96819557  -0.23382836    5.3363852    6.0211991 0.00050336735    14366.934 
   94800   0.78703173  -0.20733978    5.5729616    6.1123724 -0.0094524184    15074.275 
   95100   0.84369201  -0.19402703    5.4176755    6.0241594 -0.011303952    14620.959 
   95400   0.98199275  -0.20174986    5.4691094    6.1990928 -0.0046980643    14308.648 
   95700   0.97432021  -0.15693249    5.4199955    6.1875165  0.013449932    14301.116 
   96000   0.98070327  -0.19358198    5.4412239    6.1781517 -0.014854465    14800.237 
   96300   0.99573364  -0.20786034    5.2316815    5.9685921 0.0011154493    14511.617 
   96600   0.94782644  -0.21240411    5.3314417    6.0183532 0.0042724986    14061.372 
   96900   0.94314213  -0.22715054     5.443741    6.1114615 0.0079794986     14287.73 
   97200   0.95698408  -0.20902892    5.2537052    5.9526808 -0.0082476216    14837.423 
   97500    1.0267809  -0.20485277    5.2916663    6.0610426 -0.0017718273    15016.455 
   97800   0.89940931  -0.21462293    5.2912799    5.9300335 0.0034328475    14875.176 
   98100   0.92893113  -0.17418598    5.2795835    5.9867849 -0.0038282052    14677.687 
   98400   0.87182747  -0.20112244    5.3070257    5.9331096 -0.00063797258    14990.978 
   98700    1.0563006  -0.18631129    5.2165315    6.0324582 -0.0048481545    14493.524 
   99000   0.98992128  -0.22970054     5.187977    5.8975325 -0.016689072    15488.413 
   99300   0.95390427  -0.21958913    5.2327167    5.9182099 -0.0032444242    14848.906 
   99600   0.95665844  -0.21135409    5.2037039    5.9000454 -0.0084932179    15002.955 
   99900   0.93938324  -0.21045913    5.3426276    6.0234731 -0.0092755458    15392.537 
  100000   0.93461305  -0.18266893     5.454291    6.1584006 -0.0039260927     14664.92 
Loop time of 3.88981 on 1 procs for 100000 steps with 127 atoms

Performance: 11105929.487 tau/day, 25708.170 timesteps/s
97.9% CPU use with 1 MPI tasks x no OpenMP threads

MPI task timing breakdown:
Section |  min time  |  avg time  |  max time  |%varavg| %total
---------------------------------------------------------------
Pair    | 0.11628    | 0.11628    | 0.11628    |   0.0 |  2.99
Bond    | 1.4965     | 1.4965     | 1.4965     |   0.0 | 38.47
Neigh   | 0.68273    | 0.68273    | 0.68273    |   0.0 | 17.55
Comm    | 0.068973   | 0.068973   | 0.068973   |   0.0 |  1.77
Output  | 0.15871    | 0.15871    | 0.15871    |   0.0 |  4.08
Modify  | 1.2416     | 1.2416     | 1.2416     |   0.0 | 31.92
Other   |            | 0.125      |            |       |  3.21

Nlocal:    127 ave 127 max 127 min
Histogram: 1 0 0 0 0 0 0 0 0 0
Nghost:    8 ave 8 max 8 min
Histogram: 1 0 0 0 0 0 0 0 0 0
Neighs:    13 ave 13 max 13 min
Histogram: 1 0 0 0 0 0 0 0 0 0

Total # of neighbors = 13
Ave neighs/atom = 0.102362
Ave special neighs/atom = 5.66929
Neighbor list builds = 29851
Dangerous builds = 794
Total wall time: 0:00:03
