LAMMPS (17 Nov 2016)
dimension			2
units			lj
atom_style			molecular
boundary p p p
atom_modify			sort 0 1

read_data			hof_5_data.data
  orthogonal box = (-75 -50 -1) to (75 50 1)
  1 by 1 by 1 MPI processor grid
  reading atoms ...
  125 atoms
  scanning bonds ...
  2 = max bonds/atom
  scanning angles ...
  1 = max angles/atom
  reading bonds ...
  120 bonds
  reading angles ...
  120 angles
  2 = max # of 1-2 neighbors
  2 = max # of 1-3 neighbors
  4 = max # of 1-4 neighbors
  6 = max # of special neighbors
neigh_modify			every 1 delay 1
bond_style			harmonic
bond_coeff			1 30 1.3
angle_style			harmonic
angle_coeff			1 30 180
pair_style			lj/cut 5.04
pair_coeff			* * 0 0 0
pair_coeff			1 4 8.28125 1 2.5
pair_coeff			1 5 2.96875 1 2.5
pair_coeff			1 6 4.0625 1 2.5
pair_coeff			1 7 8.4375 1 2.5
pair_coeff			1 3 100 4.5 5.0
pair_coeff			1 1 100 1.0 1.12246
pair_coeff			1 2 100 1.0 1.12246
pair_modify			shift yes
dump			id all xyz 100 ../out/hof_5_out.xyz
group			move type 1
118 atoms in group move
group			anchor type 2
2 atoms in group anchor
group			protein type 3 4 5 6 7
5 atoms in group protein
velocity move create 1.0 1
velocity protein set 0 -1 0
fix			0 all enforce2d
fix			1 move nph x 0.0 0.0 1.0 y 0.0 0.0 1.0 couple xy
fix			2 protein rigid/nve molecule
1 rigid bodies with 5 atoms
fix			3 all langevin 1 1 1 1000

thermo			300
timestep			0.005
run			100000
Neighbor list info ...
  1 neighbor list requests
  update every 1 steps, delay 1 steps, check yes
  max neighbors/atom: 2000, page size: 100000
  master list distance cutoff = 5.3
  ghost atom cutoff = 5.3
  binsize = 2.65 -> bins = 57 38 1
Memory usage per processor = 8.25659 Mbytes
Step Temp E_pair E_mol TotEng Press Volume 
       0   0.98356846            0    3.5084852    4.4566452 -0.0007985462        15000 
     300   0.92429818            0    3.2542204    4.1452439 0.0027594639    14726.779 
     600   0.99312105            0    3.3806411    4.3380098  0.003989558    14284.198 
     900     1.023637            0    3.2812701    4.2680562 -0.001936874    14917.291 
    1200    1.0567139            0    3.2866989    4.3053711 -0.0093138545     15634.59 
    1500   0.91139317            0    3.2384403    4.1170233 -0.0023195184    15328.104 
    1800    1.0132096            0     3.213783     4.190517 0.0021164758     15008.35 
    2100   0.99077291            0    3.2940624    4.2491675 0.0031173685    14762.333 
    2400    1.0157699            0    3.2677275    4.2469297 0.0058639296    14840.619 
    2700    1.0798272            0    3.3699579    4.4109114  0.001720776    15252.745 
    3000    0.8753913            0    3.5019278     4.345805 -0.0043438553    15517.247 
    3300   0.97773848            0    3.5091018    4.4516417 -0.0097617436    15974.179 
    3600   0.94521529            0    3.4132953    4.3244828 0.0019101145    15390.678 
    3900     1.035613            0    3.4244951     4.422826 0.0054947472    15413.998 
    4200    1.0734817            0    3.1449162    4.1797526 1.8432183e-05    15729.287 
    4500    1.1190665            0    3.1974521    4.2762322 0.0031398244    15380.585 
    4800    1.0322906            0    3.2752174    4.2703455 0.00036625043    15433.239 
    5100   0.87353793            0    3.2392352    4.0813258 -0.011204563     16209.38 
    5400    1.1332363            0    3.3493397    4.4417795 -0.0026949102    15682.097 
    5700    1.0241118            0    3.3728251    4.3600689 -0.00061769234    15480.105 
    6000   0.92028712            0     3.609485    4.4966418 0.0014732907    15141.751 
    6300    1.0340166            0    3.3023492    4.2991412 -0.00086825827    15599.438 
    6600    0.8492999            0    3.3997835    4.2185086 0.00064709745    15269.011 
    6900    1.0098291            0    3.4718917     4.445367 0.0091610941     14797.67 
    7200    1.1373749            0    3.4863951    4.5828245 0.0032189011    15224.856 
    7500   0.98295926            0     3.669171    4.6167437 -0.0041731399    15559.873 
    7800    1.0098789            0    3.6126762    4.5861994 -0.012827405    16235.301 
    8100     1.117966            0    3.5208158    4.5985351 -0.0011375767    15681.755 
    8400    1.1244972            0    3.5579012    4.6419164  -0.00130682      15695.9 
    8700    1.0200621            0    3.6789066    4.6622464 -5.6186301e-05    15695.997 
    9000    1.0158825            0    3.4956614    4.4749721 0.0070538823    15341.306 
    9300     1.040291            0    3.6458243    4.6486648 0.0030219088    15440.145 
    9600   0.89987557            0    3.8977364    4.7652164 -0.0064046595    15866.318 
    9900    1.0065333            0    3.8845766    4.8548746 -0.010168457    16294.416 
   10200   0.98254453            0    3.5894552    4.5366281 -0.00074112941    15747.955 
   10500    1.0287018            0    3.6813182    4.6729867 0.0040163534    15264.862 
   10800    0.7726544            0    3.6910767    4.4359155 0.00017332009    15707.929 
   11100    1.0329171            0    3.6601362    4.6558683 -0.0018615852    16030.586 
   11400    1.0284532            0     3.779959    4.7713879 0.0012559356    16033.821 
   11700    1.0360417            0    3.8026113    4.8013555 0.0017430186    16109.985 
   12000    1.0297204            0    3.7095831    4.7022335 0.0033378184    15960.755 
   12300    1.1813324            0     3.827472    4.9662765 -0.00037649984    16409.588 
   12600    1.1719997            0    3.8088839    4.9386916 -0.0036303716    16581.704 
   12900     1.053071            0    3.7823882    4.7975486 -0.0038738637    16423.836 
   13200   0.94752475            0    3.7315051    4.6449189  0.003886297    15760.552 
   13500   0.93884477            0    3.7274955    4.6325419  0.004104115    15702.251 
   13800    1.0268798            0    3.8455968    4.8355089   0.00371281    15833.573 
   14100    1.0783387            0    3.9328167    4.9723352 -0.00034254956    16306.944 
   14400    0.9971998            0    3.9367466    4.8980472 0.00022502855    16495.417 
   14700   0.89912006            0    3.9398972    4.8066489 -0.00034532152        16464 
   15000    1.1482365            0    3.7820141     4.888914 -0.0034240541    16923.843 
   15300   0.95812987            0    3.7851696    4.7088068 -0.0058327303    17112.175 
   15600    1.1600028            0    4.0060622    5.1243049 -0.0010118407    16668.357 
   15900   0.99977979            0    3.8365193    4.8003071 -0.0012203245    16664.703 
   16200    1.0319751            0    3.9412657    4.9360898 0.0011738404    16497.223 
   16500   0.92409427            0    3.9127788    4.8036057 0.0037627461    16179.836 
   16800    1.0561841            0     4.028355    5.0465164 0.0023859803    16040.596 
   17100   0.84337872            0    4.1013067    4.9143238 -0.0024325819    16100.428 
   17400    1.0582228            0    3.9098714    4.9299982 0.00021797617    15920.404 
   17700   0.96982086            0    3.9272659    4.8621732 -0.00062901573    16033.642 
   18000    1.0180637            0    3.9056275    4.8870409 -0.0017290414    16229.967 
   18300    1.0416689            0    3.8776136    4.8817825 0.00062232399    16192.849 
   18600   0.87474886            0      3.93583    4.7790879 -0.0005195649    16223.844 
   18900   0.95924091            0    3.9802946    4.9050029 -0.0014756362    16706.385 
   19200    1.0898739            0    3.9215887    4.9722271 -0.0052928991    17104.006 
   19500   0.94204554            0    4.0146037    4.9227356 0.0004062834    16470.121 
   19800   0.91774236            0    3.9484206    4.8331242 0.0019538453    16317.057 
   20100   0.93651386            0    4.1495667    5.0523661 0.0037151386    16084.616 
   20400    1.1695302            0    4.0177628      5.14519 0.0021458749    16241.186 
   20700    1.0183161            0      4.04829    5.0299467 -0.0020652983    16329.809 
   21000    1.0608309            0    3.9563936    4.9790347 -0.00072142676    16166.525 
   21300   0.97785749            0    3.9881745    4.9308291 -0.0052423336     16579.35 
   21600   0.96896524            0    3.9007368    4.8348193 -0.0026815613    16740.483 
   21900   0.93219253            0     3.994416    4.8930496 0.0023893797    16423.234 
   22200   0.84580237            0    3.8432538    4.6586073 0.0036607243    16171.581 
   22500   0.91478654            0    4.0023477    4.8842019 0.0040968394    16104.606 
   22800    1.0984608            0    4.0994704    5.1583866 0.0018066435    16172.846 
   23100    1.1654092            0    4.0641454    5.1875998 -0.00046488869    16353.648 
   23400    0.9989276            0    4.1621102    5.1250764 -0.0013745646    16236.927 
   23700    1.1008249            0    4.0718425    5.1330378 1.4607625e-05    16192.291 
   24000   0.89507706            0     4.244052    5.1069062 0.0053428521    15721.254 
   24300    1.2863242            0    4.0757041    5.3157206 0.0068453136    15940.323 
   24600    1.0797582            0    4.2123277    5.2532146 0.0033950364    15730.264 
   24900   0.90281328            0    4.0438839    4.9141959 -0.0022575833     16191.83 
   25200    1.0809512            0    4.1686361     5.210673 -0.0071545105    16802.323 
   25500   0.97419727            0    4.2242216    5.1633478 0.00066489394    16115.632 
   25800    1.0040501            0    4.4378976    5.4058019 0.0012259443    16021.021 
   26100    1.0465325            0     4.351902    5.3607593 0.0004482457    16040.822 
   26400    1.1054599            0    4.4877374    5.5534008 -0.0044790381    16786.845 
   26700    1.0460097            0    4.2084049    5.2167583 -0.0036963409    16736.193 
   27000   0.95502287            0    4.3292888    5.2499308  -0.01026719    17239.325 
   27300    1.0097536            0    4.3025469    5.2759494 -0.0017543539    16712.112 
   27600   0.89484384            0    4.3883626    5.2509921 -0.002669804     16692.02 
   27900   0.92229951            0    4.3195378    5.2086345 -0.0076362738    17207.072 
   28200    1.0619793            0     4.456209     5.479957 -0.0037950679    16986.926 
   28500   0.96685812            0    4.4835587    5.4156099 0.0013819773    16450.952 
   28800   0.92795877            0    4.3778356    5.2723879 -0.0012134064    16371.551 
   29100    1.2816054            0    4.4339176    5.6693852 -0.0054968485     17009.83 
   29400   0.85858617            0     4.543566    5.3712431 -0.0055184563    16747.404 
   29700   0.91977296            0    4.5061861    5.3928472 -0.0070014761    16825.038 
   30000    1.0327737            0    4.4945318    5.4901256 -0.00061514682    16596.063 
   30300   0.95486271            0    4.5349401    5.4554277 -0.00014418677    16399.287 
   30600    1.0726972            0    4.3827442    5.4168244 -0.0014181244    16647.571 
   30900   0.86131315            0     4.352824    5.1831299 0.00020443768     16425.81 
   31200   0.92680292            0    4.3755489    5.2689869 0.00093057284     16483.82 
   31500   0.89903204            0    4.5055717    5.3722386 -0.0015965922    16446.908 
   31800    1.0367176            0    4.4089176    5.4083133 0.0015284382     16440.73 
   32100     1.085466            0    4.4840171    5.5304063 0.0016792159    16477.959 
   32400   0.87519132            0    4.3105285     5.154213 -0.0023677562    16760.654 
   32700   0.93532941            0    4.5048283    5.4064859 -0.0023385972    16598.517 
   33000   0.97857455            0    4.4852456    5.4285914 0.00058726402    16478.644 
   33300   0.91888913            0    4.5889857    5.4747948 -0.0015068392    16540.934 
   33600   0.93295349            0    4.5395697    5.4389368 -0.0017000796    16610.176 
   33900    1.0150791            0    4.5837517    5.5622879 -0.0035202357    16622.406 
   34200    1.0193649            0    4.6305587    5.6132265 -7.0075301e-05     16489.99 
   34500    1.1895655            0    4.5277782    5.6745193 0.00017693821     16628.73 
   34800    1.1410768            0     4.625348    5.7253461 -0.0024817983    16791.862 
   35100   0.88348477            0     4.846298    5.6979773 -0.0048687017    16835.833 
   35400   0.91484975            0    4.6694908     5.551406 -0.0025363656    16769.924 
   35700     1.095114            0    4.6770475    5.7327374 0.0041881918    16167.378 
   36000   0.93351338            0    4.6327258    5.5326327 0.0016396277    16268.926 
   36300    1.0525913            0    4.6396623    5.6543603 0.00071662841    16529.065 
   36600    1.0731363            0    4.6284703    5.6629737 -0.0006949206    16665.294 
   36900    0.9748225            0    4.5692988    5.5090277 -0.0012650501    16492.665 
   37200    0.9160239            0    4.5936083    5.4766553 0.0029920512    16212.091 
   37500   0.93935129            0    4.4835947    5.3891293 0.0035216031    16057.186 
   37800   0.91172793            0     4.641216    5.5201217 0.0032457286    15954.642 
   38100    1.0169778            0     4.570867    5.5512336  0.004099917    15791.636 
   38400   0.88330997            0    4.5922849    5.4437957 -0.002122836    16349.364 
   38700    1.0078037            0    4.5423466    5.5138693 -0.0034974024    16486.053 
   39000   0.98783477            0     4.654287    5.6065597 0.0015499265    16111.508 
   39300    1.0476196            0    4.4504215    5.4603268 0.0021036731    15977.668 
   39600    1.0159149            0    4.6446787    5.6240206 -0.0006806193    15954.648 
   39900    1.0007528            0    4.6228463    5.5875721 0.0014531292    15808.901 
   40200   0.99692459            0    4.5552571    5.5162924 -0.0056379325    16541.073 
   40500    1.1171303            0    4.5798673     5.656781 -0.001159648    16154.516 
   40800    1.0602084            0    4.5891638    5.6112047 0.0029871737    15662.589 
   41100    1.1411986            0     4.610492    5.7106075 0.0051161047    15654.576 
   41400    1.0564327            0    4.6034173    5.6218184  0.009413209    15302.452 
   41700    1.1051671            0    4.6255724    5.6909535 0.0016897313     15961.42 
   42000   0.95671454            0    4.7981794    5.7204522 -0.0057339397    16506.863 
   42300    1.1224365            0    4.6176319    5.6996607 -0.0061867563    16821.144 
   42600    1.0015808            0    4.7444747    5.7099986 0.0002969845    16230.301 
   42900   0.89074805            0    4.7316478    5.5903289 -0.0020333857    16236.292 
   43200     0.969726            0     4.863737    5.7985529 0.0028939509    15903.861 
   43500    1.0183346            0    4.7845857    5.7662602  0.003212502    15779.869 
   43800   0.99587538            0    4.7099789    5.6700028 0.0040124975    15928.744 
   44100    1.0360168            0    4.8834939    5.8822141 -0.0021719311    16347.135 
   44400   0.90058378            0    4.8540627    5.7222254 0.0016045193    16031.489 
   44700    0.8327863            0    4.9881396    5.7909456 0.0070719923    15465.413 
   45000    1.2834359            0    4.8450081    6.0822403 0.0025780704    16000.246 
   45300   0.97230637            0    4.8711564    5.8084598 0.0010661388    16130.697 
   45600    0.9264045            0    4.8311828    5.7242367 -0.0023498464    16273.444 
   45900    0.9487399            0    4.9135372    5.8281225 0.0029828434    15867.316 
   46200   0.83516339            0    4.9869571    5.7920546 0.0029085474    15796.202 
   46500    1.1222993            0    4.9623653    6.0442618 0.0061554316    15801.866 
   46800   0.92169072            0    5.1692623    6.0577721 0.0014963059    15816.341 
   47100   0.93223119            0     5.040367    5.9390378 0.00030879032    16194.686 
   47400   0.87210839            0    5.0243067    5.8650192 -0.0029190586    16097.231 
   47700   0.92798142            0    5.0984499     5.993024 -0.0056326066    16487.304 
   48000    1.1043577            0    5.1724947    6.2370955 -0.0056684985    16434.515 
   48300   0.95507511            0    5.0718987    5.9925912 -0.0021258822    16023.169 
   48600   0.78480565            0    5.0693489    5.8259016 0.0046974824    15352.269 
   48900    0.9128119            0    4.9954544    5.8754051 0.0051149011    15072.142 
   49200   0.83235285            0    5.1400034    5.9423915 0.0009574369    15084.905 
   49500   0.94126481            0    5.0717546    5.9791338 0.0043883401    15054.224 
   49800    1.1163308            0     5.018872    6.0950148 0.0033862911    15357.522 
   50100   0.90846472            0    5.0941692    5.9699292 -0.00071036976    15357.236 
   50400   0.97344638            0    4.9353551    5.8737574 0.00039565019     15498.72 
   50700   0.99157664            0    4.9635584    5.9194383 -0.0013907077    15848.419 
   51000   0.95099965            0     4.931486    5.8482497 0.0032342552    15720.779 
   51300   0.94855374            0    5.0086365    5.9230423  0.004660356    15501.224 
   51600    1.1782008            0    4.9194184     6.055204 0.0045093225    15763.861 
   51900    1.0631609            0    5.0895746    6.1144618 0.0044998374    15554.316 
   52200    1.1172533            0    4.9466979      6.02373 0.0019504544    15562.904 
   52500   0.90752269            0    5.1132369    5.9880887 -0.003427153    15651.724 
   52800    1.2311266            0    5.1797644    6.3665704 -0.0017917316    15405.004 
   53100    0.9621792            0    5.1342299    6.0617707 -0.0041385221     15382.32 
   53400   0.93137098            0    5.0121516    5.9099932 -0.0054467188    15301.715 
   53700    1.0093408            0    4.9002582    5.8732627 -0.0027859335    15235.285 
   54000    1.0842248            0    4.9410377    5.9862304 0.0016793558     15206.78 
   54300    1.0494303            0    4.8982006    5.9098514 0.0030652658    14802.694 
   54600   0.95365328            0    5.0645102    5.9838319 0.0022800716    15074.487 
   54900    1.1796462            0    4.8905491    6.0277281 0.0076373022    14951.419 
   55200   0.94897293            0    5.0796498    5.9944597 0.0058806319    15109.735 
   55500    1.0870092            0    4.9284074    5.9762842 0.0037505946    15395.916 
   55800   0.98061726            0    5.0354588    5.9807738 -0.00029608897    15441.417 
   56100   0.86523474            0     5.051941    5.8860273 -0.0097622331    16088.411 
   56400   0.99373822            0    5.0076584    5.9656221 -0.0052463886    16004.044 
   56700    1.1600371            0    4.9645649    6.0828407 -0.00024176492     16027.49 
   57000    1.0268386            0    4.8923907    5.8822631 0.0040464657     15742.57 
   57300   0.94674603            0    5.0251856    5.9378487 0.0046359007    15294.625 
   57600    1.0043805            0    5.1161774    6.0844002 0.0046679264    15229.517 
   57900    1.0363342            0    5.0591246    6.0581507 0.0044565912    15298.089 
   58200    1.0025858            0    5.0487856    6.0152784 0.00032153966    15737.876 
   58500   0.88529763            0    4.9926311     5.846058 -0.0027156541    16059.714 
   58800   0.98871818            0    5.0260579    5.9791822 -0.0013707296    15950.315 
   59100   0.80600224            0    5.0451573    5.8221435 -0.00078598801    15737.462 
   59400   0.86702088            0    4.9524786    5.7882867  0.005154987    15324.042 
   59700    1.1089953            0    4.9838228    6.0528943 0.0033858137    15513.502 
   60000    1.0417663            0    5.0772991    6.0815618 0.0014453724    15480.709 
   60300    1.1866853            0    5.0886319    6.2325966 -0.00055561774     15795.01 
   60600    1.0633946            0    5.1613749    6.1864873 -0.0051888465    16310.795 
   60900   0.95028033            0    5.1459135    6.0619837 -0.0021510442    16051.264 
   61200    1.0561875            0     5.053047    6.0712118 0.0011263182    16027.214 
   61500    1.0264509            0    5.0052771    5.9947758 0.0010180832     15966.54 
   61800    1.0094867            0    5.2039283    6.1770735 0.0033849345    15702.997 
   62100   0.98678145            0    5.3820405    6.3332978 0.0060349929    15650.974 
   62400   0.98378556            0    5.3619061    6.3102754 -0.00071430154    16283.523 
   62700   0.98032149            0    5.4254143    6.3704442 -0.0036060046    16433.076 
   63000   0.89973062            0    5.1850517     6.052392 -0.0083795096    16707.047 
   63300   0.86869888            0    5.3578967    6.1953224 -0.006159684    16481.765 
   63600   0.83890802            0    5.2567761    6.0654834 -0.0052086655    16524.605 
   63900   0.80434449            0    5.3148783    6.0902664 -0.0057345012    16766.182 
   64200    1.1040382            0    5.3527636    6.4170565 0.0057386502    16196.022 
   64500   0.92096824            0    5.1912858    6.0790992 0.0023201157    16499.679 
   64800   0.91267607            0    5.2732189    6.1530386 -0.0017740136    16647.791 
   65100   0.86159247            0    5.1747494    6.0053245 -0.0043850738     16939.69 
   65400    1.0761082            0    5.2573355    6.2947038  0.006554667    16290.019 
   65700    1.0897521            0    5.2349233    6.2854444 0.0063728422    16054.198 
   66000    1.0304307            0    5.1857873    6.1791225  0.001715021    16298.842 
   66300   0.90015487            0      5.30801    6.1757593 0.0005088766    16184.061 
   66600   0.88440515            0    5.3715247    6.2240913 -0.0052752781    16628.685 
   66900    1.0585966            0    5.1764115    6.1968986 -0.0024379457    16825.721 
   67200   0.88739464            0    5.2970974    6.1525459 -0.00087681491    16345.046 
   67500    1.0241739            0    5.2824379    6.2697416  0.004306005     15917.58 
   67800   0.92859753            0     5.342101     6.237269 0.0050443568     15639.57 
   68100    1.1526023            0    5.2916922    6.4028008 0.0077746418    15686.258 
   68400     1.023286            0    5.5073831    6.4938308 0.0014513388    15994.368 
   68700    1.0456156            0    5.3925525     6.400526 -0.0029966427     16654.82 
   69000   0.88882311            0     5.518528    6.3753535 -0.0044645725    16689.906 
   69300   0.82873666            0    5.6981866    6.4970887 -0.0053869263    16841.586 
   69600   0.97105142            0    5.4676312    6.4037248 -0.0039187732    16914.234 
   69900    1.1199363            0    5.3820871    6.4617057 -0.0060921092    17225.683 
   70200    1.0592033            0    5.4101446    6.4312166 -0.00093562093    16764.812 
   70500    1.1071571            0      5.38509    6.4523894  0.001488236    16764.876 
   70800   0.91010726            0      5.31299    6.1903334 0.0026820177    16655.275 
   71100   0.93232727            0    5.2993778    6.1981413 0.00098550597    16626.141 
   71400   0.99290258            0    5.2326851    6.1898432 -0.0076970734    17222.996 
   71700   0.94845372            0    5.4821298    6.3964391 -0.0048474841    16878.053 
   72000   0.92677518            0    5.0736805    5.9670918 0.0024464974    16438.883 
   72300    1.0277322            0    5.1255098    6.1162436  0.001718442    16495.136 
   72600    1.1246556            0    5.2075829    6.2917509 -0.0074091999    17444.288 
   72900   0.96627549            0    5.3610509    6.2925405 -0.0046894225    17058.375 
   73200    1.1645078            0    5.2180791    6.3406646 -0.0013519786     16797.93 
   73500    1.0058844            0    5.2416394    6.2113119  0.001983412    16426.863 
   73800    1.0315497            0    5.2963862    6.2908001 0.0082317194     16043.85 
   74100    1.0358714            0    5.2909001    6.2894802 0.0036230636    16350.752 
   74400   0.98337658            0    5.3295648    6.2775398 0.0038088075    16248.406 
   74700    1.0316011            0    5.2042057    6.1986692 0.0020546473    16366.393 
   75000    1.1527351            0    5.3360958    6.4473325 -7.4964986e-05    16559.032 
   75300     1.222814            0    5.4972479    6.6760406 -0.0091464131    17226.171 
   75600   0.99741363            0    5.3490773     6.310584 -0.0041102145    16656.083 
   75900   0.97736895            0     5.319259    6.2614427 -0.0013360566    16581.999 
   76200    1.0065731            0    5.2174454    6.1877818 -0.0018021447    16458.679 
   76500   0.87169064            0    5.2729225    6.1132323 0.0019054582    16140.334 
   76800   0.91900211            0    5.2235102    6.1094282 0.0010070241    16422.618 
   77100    1.0289085            0     5.142127    6.1339948 0.0016455835    16333.253 
   77400   0.95883297            0    5.1448597    6.0691747 -0.0029946137    16803.311 
   77700    1.0222399            0    5.3222967     6.307736 -0.0037430229    16696.439 
   78000   0.94481102            0    5.2612746    6.1720724 -0.0069446934    16725.374 
   78300   0.95097241            0     5.184382    6.1011194 0.00048728223     16318.29 
   78600   0.92088347            0    5.2584293    6.1461609 -0.00057788085    16339.911 
   78900    1.0361385            0    5.2812368    6.2800743  0.002066502    16399.793 
   79200   0.89471037            0    5.4978734    6.3603742 0.00046514004    16040.412 
   79500   0.95354275            0    5.3531879    6.2724031 -0.00059222889    16307.762 
   79800    1.0302488            0    5.2715023    6.2646622 -0.0013940724    16438.218 
   80100    1.1798871            0    5.3928884    6.5302996 -0.0035625442    16245.011 
   80400   0.95722467            0    5.4717141    6.3944787 0.0015501991    15641.629 
   80700     1.179734            0    5.1793214    6.3165849 0.0010963033    15648.784 
   81000    1.0371993            0    5.3614252    6.3612853 -0.004651052    15870.015 
   81300    1.0721579            0    5.4621679    6.4957282 -0.0042535966    15965.039 
   81600   0.86391677            0    5.3343416    6.1671574 0.0040326727    15579.659 
   81900    1.0468425            0    5.3221707    6.3313269 0.0049271282    15484.592 
   82200    1.0239587            0    5.1368786    6.1239748   0.00433534    15673.886 
   82500    1.0134421            0    5.4227169    6.3996751 -0.0020912718    16077.561 
   82800    1.0316614            0    5.1675816    6.1621032 -0.0069473013    16278.012 
   83100   0.97018392            0    5.1615129    6.0967702 -0.0035706592    16010.275 
   83400    1.0058676            0    5.5024399    6.4720963 -0.0051169596    15966.029 
   83700   0.95746607            0    5.2744617     6.197459  0.001523013    15734.103 
   84000   0.95467594            0    5.3255227    6.2458303  0.001012542    15662.027 
   84300   0.87798854            0    5.1473929    5.9937739 0.0042459862    15415.676 
   84600   0.76598775            0    5.1688341    5.9072463 -0.0016559905    15586.397 
   84900    1.0917806            0    5.2704795    6.3229561 -0.0013845628    15805.459 
   85200   0.92929056            0    5.3651121    6.2609482 -0.0032821982    15647.272 
   85500    0.9706709            0    5.4531316    6.3888584 -0.0051175564    15791.711 
   85800    1.0413606            0    5.1360248    6.1398964 -0.0069587402    15903.665 
   86100   0.96510215            0    5.2883297    6.2186881 -0.0050083229    15702.384 
   86400    1.1029262            0     5.220605    6.2838258 -0.0010371913    15141.135 
   86700   0.90952439            0    5.1776531    6.0544346 -0.0039523131    15187.652 
   87000     1.145394            0     5.224567    6.3287269 -0.0073844967    15605.978 
   87300    1.0383547            0     5.122643    6.1236169 -0.0019193243    15335.699 
   87600   0.93755309            0    5.2052721    6.1090733 0.0007153713    15127.117 
   87900   0.99507314            0    5.2224132    6.1816637 0.0024695188    15225.963 
   88200   0.88615046            0    5.1269047    5.9811537 0.0019575677    15123.411 
   88500   0.84761438            0    5.1747631    5.9918633 0.0022619969    15159.306 
   88800    1.0024434            0    5.2311432    6.1974986 0.00026701686    15503.578 
   89100   0.99406922            0     5.213422    6.1717047 -0.0036889344    15849.995 
   89400    1.0172845            0    5.1833035    6.1639658 -0.0069991558    15902.045 
   89700   0.87837181            0    5.1700914    6.0168418 -0.0033503885    15322.489 
   90000   0.94577684            0    5.3372738    6.2490027 -0.00057453681    15095.794 
   90300    0.8718249            0    5.4194761    6.2599153 0.0038021846    14587.547 
   90600   0.97291335            0    5.2235377    6.1614262 0.0086839925    14580.445 
   90900    1.0721768            0    5.3567213    6.3902997 -0.0013188152    15249.326 
   91200    1.0875803            0    5.5084556     6.556883 -0.0038800471    15233.242 
   91500    1.0517034            0    5.3587404    6.3725825 -0.0055115153    15001.518 
   91800   0.92704129            0    5.3334846    6.2271524 -0.0095414552     15340.07 
   92100   0.97753073            0    5.2061456    6.1484853 -0.001659376    15399.615 
   92400    1.0536163            0    5.0708574    6.0865435 0.0033748949    15143.384 
   92700   0.96074188            0    5.2533212    6.1794763 0.0036005266    15039.285 
   93000   0.90299947            0    5.2645652    6.1350567   0.01220686    14681.886 
   93300    1.0349082            0    5.4252185      6.42287 -0.0014856701    15617.336 
   93600   0.97620632            0    5.2032216    6.1442845 -0.0043335565    15818.566 
   93900   0.94150807            0    5.2013855    6.1089993 -0.0032332918    16014.532 
   94200   0.94070021            0    5.2480153    6.1548503 -0.005717982    16060.871 
   94500   0.89446596            0    5.1702087    6.0324739 -0.0079272555    16186.263 
   94800   0.98818469            0    5.2087922    6.1614022 -0.0015048908    15837.408 
   95100     1.063748            0    5.2174815    6.2429346 0.0036603147    15561.062 
   95400    0.7877514            0    5.2189927     5.978385 0.0045295065    15341.701 
   95700   0.92412372            0    5.3259047      6.21676 0.0027051768    15466.177 
   96000   0.90365071            0    5.3687301    6.2398493 0.0057120843    15401.228 
   96300   0.98034113            0    5.1862895    6.1313384 0.0033078949    15767.328 
   96600    1.1188478            0    5.4241153    6.5026846 -0.0017489728    16075.723 
   96900   0.90259325            0    5.2929252    6.1630251 -0.00035644455    15685.244 
   97200    1.0785112            0    5.1184276    6.1581124 0.0054024296    15584.435 
   97500    0.8295333            0    5.3029972    6.1026673 0.0035901164    15256.469 
   97800   0.96058577            0    5.4312513     6.357256 0.00080900573    15378.482 
   98100   0.97260899            0    5.3140957    6.2516907 -0.0041570095    15838.049 
   98400    1.0086824            0    5.2794915    6.2518614 -0.0091700487    16004.622 
   98700    1.1215344            0    5.3725681    6.4537273 0.00028332445    15465.514 
   99000   0.96284228            0    5.4015974    6.3297774 -0.0019478021    15382.278 
   99300    0.8494934            0    5.4611917    6.2801034 -0.0019861789    15171.502 
   99600   0.80149929            0     5.344438    6.1170833 0.00084658291    15064.268 
   99900    1.1908294            0    5.4079882    6.5559478 0.0022857572    15345.192 
  100000    1.0202271            0    5.5802508    6.5637498 -0.00059472158    15437.868 
Loop time of 4.09912 on 1 procs for 100000 steps with 125 atoms

Performance: 10538834.507 tau/day, 24395.450 timesteps/s
95.9% CPU use with 1 MPI tasks x no OpenMP threads

MPI task timing breakdown:
Section |  min time  |  avg time  |  max time  |%varavg| %total
---------------------------------------------------------------
Pair    | 0.099486   | 0.099486   | 0.099486   |   0.0 |  2.43
Bond    | 1.5577     | 1.5577     | 1.5577     |   0.0 | 38.00
Neigh   | 0.75916    | 0.75916    | 0.75916    |   0.0 | 18.52
Comm    | 0.080772   | 0.080772   | 0.080772   |   0.0 |  1.97
Output  | 0.1899     | 0.1899     | 0.1899     |   0.0 |  4.63
Modify  | 1.2731     | 1.2731     | 1.2731     |   0.0 | 31.06
Other   |            | 0.1391     |            |       |  3.39

Nlocal:    125 ave 125 max 125 min
Histogram: 1 0 0 0 0 0 0 0 0 0
Nghost:    7 ave 7 max 7 min
Histogram: 1 0 0 0 0 0 0 0 0 0
Neighs:    0 ave 0 max 0 min
Histogram: 1 0 0 0 0 0 0 0 0 0

Total # of neighbors = 0
Ave neighs/atom = 0
Ave special neighs/atom = 5.76
Neighbor list builds = 32784
Dangerous builds = 1341
Total wall time: 0:00:04
