LAMMPS (17 Nov 2016)
dimension			2
units			lj
atom_style			molecular
boundary p p p
atom_modify			sort 0 1

read_data			hof_1_data.data
  orthogonal box = (-75 -50 -1) to (75 50 1)
  1 by 1 by 1 MPI processor grid
  reading atoms ...
  127 atoms
  scanning bonds ...
  2 = max bonds/atom
  scanning angles ...
  1 = max angles/atom
  reading bonds ...
  120 bonds
  reading angles ...
  120 angles
  2 = max # of 1-2 neighbors
  2 = max # of 1-3 neighbors
  4 = max # of 1-4 neighbors
  6 = max # of special neighbors
neigh_modify			every 1 delay 1
bond_style			harmonic
bond_coeff			1 30 1.3
angle_style			harmonic
angle_coeff			1 30 180
pair_style			lj/cut 5.04
pair_coeff			* * 0 0 0
pair_coeff			1 4 6.5625 1 2.5
pair_coeff			1 5 0.78125 1 2.5
pair_coeff			1 6 7.96875 1 2.5
pair_coeff			1 7 6.25 1 2.5
pair_coeff			1 8 0.0 1 2.5
pair_coeff			1 9 8.4375 1 2.5
pair_coeff			1 3 100 4.5 5.0
pair_coeff			1 1 100 1.0 1.12246
pair_coeff			1 2 100 1.0 1.12246
pair_modify			shift yes
dump			id all xyz 100 ../out/hof_1_out.xyz
group			move type 1
118 atoms in group move
group			anchor type 2
2 atoms in group anchor
group			protein type 3 4 5 6 7 8 9
7 atoms in group protein
velocity move create 1.0 1
velocity protein set 0 -2 0
fix			0 all enforce2d
fix			1 move nph x 0.0 0.0 1.0 y 0.0 0.0 1.0 couple xy
fix			2 protein rigid/nve molecule
1 rigid bodies with 7 atoms
fix			3 all langevin 1 1 1 1000

thermo			300
timestep			0.005
run			100000
Neighbor list info ...
  1 neighbor list requests
  update every 1 steps, delay 1 steps, check yes
  max neighbors/atom: 2000, page size: 100000
  master list distance cutoff = 5.3
  ghost atom cutoff = 5.3
  binsize = 2.65 -> bins = 57 38 1
Memory usage per processor = 8.25678 Mbytes
Step Temp E_pair E_mol TotEng Press Volume 
       0    1.0217427            0    3.4532334    4.4226822 -0.00049187953        15000 
     300   0.98794766            0    3.3857581    4.3231415 0.00046770944    14983.128 
     600    1.1524238            0    3.2181661    4.3116076 0.0060846559    14788.211 
     900   0.92935596            0    3.3611691    4.2429596 -0.0039192867    15202.221 
    1200   0.93486633            0     3.327291    4.2143098 -0.0048690236    14960.555 
    1500   0.92388882            0    3.3870538     4.263657 0.00087658806    14538.786 
    1800   0.89488747            0    3.2422998     4.091386 0.0033589524    14476.766 
    2100    1.1007425            0    3.4974728    4.5418781 0.0023264535    14524.235 
    2400    1.0497313            0    3.5077568    4.5037617 -0.0022224183    14725.339 
    2700    1.0543064            0    3.3517958    4.3521417 -0.0022130403    15123.898 
    3000    1.0144127            0    3.5749731     4.537467 -0.0044483325     15130.77 
    3300     1.041064            0    3.4029056    4.3906868 0.0044490251    14567.418 
    3600    1.1192198            0    3.3635121     4.425449 0.0055664048    14524.002 
    3900   0.99244377            0    3.5398777    4.4815271 0.0014578077    14377.122 
    4200    1.0182303            0    3.4434808    4.4095969 -0.0060374054    15092.412 
    4500    1.1018619            0    3.4787192    4.5241866 -0.0055023556    15297.084 
    4800    1.1370872            0    3.4127786    4.4916684 0.00079104866    14774.237 
    5100   0.94138066            0    3.4013701    4.2945699 -0.0013516564    15182.851 
    5400   0.95975821            0    3.4913782    4.4020149 -0.0076146148    15694.235 
    5700   0.92952845            0    3.3755489    4.2575031 -0.00078707457    15276.083 
    6000    1.0195789            0    3.4780009    4.4453966 -0.0017748857    15386.117 
    6300   0.99062625            0    3.2778829    4.2178078 -0.00013590559    15355.743 
    6600   0.85525899            0    3.2664226    4.0779085 0.0083883498    14824.386 
    6900    1.0673399            0    3.3481819    4.3608941 0.0022118836    15242.753 
    7200   0.99535749            0    3.4104984    4.3549124 -0.0023094118    15319.731 
    7500   0.95241689            0    3.4969825    4.4006536 -0.0031490054    15495.568 
    7800    1.0361334            0    3.4622952    4.4453982 0.0056548909    15211.395 
    8100    1.0466176 -0.0014585728    3.5152377    4.5068297 0.0031256211     15269.13 
    8400    1.0138051 -0.0028189928    3.5916244    4.5507229 -0.0079027495    16013.974 
    8700    1.0538847 -0.068707642    3.4589157    4.3901537 -0.009685353    16022.187 
    9000   0.96088117  -0.11794568    3.6085678    4.4023243 -0.0045900238    15533.876 
    9300   0.91465791  -0.11341479    3.7774266    4.5318565 0.0042688608    15575.097 
    9600   0.90958719 -0.091258619    3.6474534    4.4192282 -0.0043744435    15816.957 
    9900   0.91412483  -0.10769018    3.6577183    4.4173671 -0.0004824303    15526.127 
   10200    1.0232413  -0.10468728    3.6757871    4.5419705 0.0068190166    15542.404 
   10500    1.0228023  -0.10531161    3.7356504     4.600793 -0.0084279569    15910.104 
   10800     1.137799   -0.1215655    3.5316008    4.4896005  0.002362237    15901.098 
   11100    1.1951791 -0.098097472    3.7155717    4.7514827 0.0010267667    15402.221 
   11400    0.9515382  -0.11839089    3.6659773    4.4504238 0.0014882383    15987.445 
   11700   0.87490346  -0.10947542    3.5711083    4.2917578 -0.0085245348    16104.998 
   12000    1.0781506  -0.10419329    3.6293647    4.5481411 0.0023622083     16084.16 
   12300   0.97662712  -0.12672688    3.6579256     4.457841 0.0071392781    16083.999 
   12600    1.0607953  -0.11009782    3.5171841    4.4135889 -0.0010397301    16024.664 
   12900   0.91456587  -0.12515665    3.7884684    4.5310691 -0.0032696257    16139.539 
   13200   0.90813725 -0.054252775    3.6277491    4.4351542 -0.0069575628    16574.853 
   13500   0.88868763  -0.11082075    3.8904247    4.6228076 -0.0019629305    16176.276 
   13800   0.97938408 -0.088322235    3.7649396    4.6058755  0.013534488    16341.078 
   14100   0.99264609  -0.11559979    3.7409865    4.5672281  0.006737306    16688.491 
   14400    0.8609522 -0.073340011    3.8069699    4.5505176 0.00034971395    15963.422 
   14700   0.97910962  -0.12198815    3.7198199    4.5268294 0.0045513566    16263.357 
   15000     1.147622  -0.11087427    3.7222448     4.700256 -0.0042293548    16630.752 
   15300    1.1630584  -0.10576488     3.803243    4.8010099  0.009095481    15972.321 
   15600   0.95503639  -0.12046326    4.0035703    4.7892636 -0.0013381374    16034.615 
   15900    1.1031049  -0.18081335    4.0319273    4.8977608 0.0024775268    16429.942 
   16200    1.0690692   -0.2273542    3.8380211      4.62502 -0.0086812795    16569.539 
   16500    1.0849283  -0.22156411    3.9625148    4.7703512 -0.00093537801     16668.54 
   16800   0.94676338  -0.17299281    3.8494399    4.5747541 -0.0019859142    16704.737 
   17100   0.95625662  -0.19629071    3.7990944    4.5101181  0.011055299     16288.01 
   17400    1.0195897  -0.20689577    3.8649767    4.6254869 -0.0056871122    16432.693 
   17700   0.88057628  -0.20810505    4.0982752    4.7256776 -0.0024452838    16344.533 
   18000   0.99713804  -0.20065695    3.9493149    4.6947614 -0.00055739777    16340.505 
   18300    1.0539438   -0.1493556    4.0209066    4.8715528 -0.0081252463    16607.535 
   18600   0.94689008  -0.19072778    3.8834982    4.5911976 -0.00097282815    16190.361 
   18900    1.0042447  -0.13825482    4.0341814     4.848773 -0.0073808495    16568.697 
   19200   0.94049882  -0.20405081    4.0925342    4.7808464  -0.00435292     16065.85 
   19500   0.97455233  -0.19870147    4.0248442    4.7508164 -0.00060421624    16403.886 
   19800    1.0239638  -0.17222816    4.1768337    4.9761617  0.016835232    15886.408 
   20100    1.0426505  -0.18334319    4.1600724    4.9660157 -0.0015464101    16272.429 
   20400    1.0760536  -0.17282276    4.2270908     5.075248 -0.011626983    16377.934 
   20700    1.0769829   -0.1642358    4.2167307    5.0743567  0.005880056    16025.727 
   21000   0.96702724  -0.20521646    4.3585936    5.0709108 0.0030639846    16656.576 
   21300   0.91724754  -0.18037096    4.2580202     4.947951 -0.0025066503    16434.027 
   21600   0.90145265  -0.13416554    4.3356388    5.0567886 -0.0095189557    16768.304 
   21900    1.0703071  -0.12328598    4.5326044     5.424846 0.0019676128    16280.045 
   22200    1.0327172 -0.096834211    4.4807853    5.3638127 -0.0045767337    16699.593 
   22500    1.0350311 -0.092229321    4.3630456    5.2528733 0.0040836021    16788.582 
   22800     1.142955  -0.10531379    4.3868979    5.3660415 -0.0043513614    16612.492 
   23100   0.88047879  -0.12310599    4.1520869    4.8643958 -0.0026182732    17075.906 
   23400    1.0372778  -0.12670863      4.31395    5.1714302 0.0028618594    16665.193 
   23700   0.88637796  -0.10575273    4.1480797    4.8833391 -0.0019651702    16564.197 
   24000   0.87681874  -0.12438527    4.3523261     5.059883 -0.0044905949    16630.148 
   24300   0.94189183  -0.10462084    4.3662038    5.1552677 -0.0037096817    16802.922 
   24600   0.86039072  -0.10438916     4.273213    4.9851788  0.018874272    16668.246 
   24900    1.1222493  -0.12182142    4.2938799    5.2368698 -0.0048218423    17267.585 
   25200    1.0749057  -0.10467923    4.3013986    5.2166102 -0.0068039731    16771.274 
   25500    1.1167969  -0.09925308    4.3400576    5.3004426 0.0025291721    16255.502 
   25800   0.88463187    -0.124347    4.4672717    5.1822802 -0.0033322685     16474.58 
   26100   0.92159714  -0.11936806    4.2997331    5.0547938 6.4501899e-05    16566.635 
   26400   0.85692895  -0.12711622      4.39586    5.0818142 0.0054266206      16295.7 
   26700    1.0401808  -0.12924366    4.1246065    4.9823061 0.0013430674      16631.9 
   27000   0.94604643  -0.12823486    4.2696324    5.0390242 -0.0086616974     16878.71 
   27300    1.0659702  -0.11445487    4.3435402     5.240498 0.0096476395     16680.77 
   27600     0.919935  -0.12749805    4.2719085    5.0172622 0.0046874994    16213.476 
   27900    1.0357972  -0.12917502    4.1713781    5.0249871 -0.0011060914    16214.572 
   28200   0.86643439  -0.11707888    4.2097426    4.9147531 -0.0012273725    16242.406 
   28500    1.0282201  -0.11939094    4.4727809    5.3289846 -0.0084569989    16536.954 
   28800   0.96127706  -0.12938981    4.3822605    5.1649485 0.0052481435    15978.306 
   29100   0.98318434  -0.12350151    4.2957347    5.1050971 -0.0074201835     16400.02 
   29400    1.0374658  -0.12060869    4.4279889    5.2917473 -0.0052816632    16346.589 
   29700   0.94723069 -0.075869609    4.3545056    5.1773864 0.0020828941    16526.891 
   30000     1.005216   -0.1233958    4.3245317    5.1549038  0.001706472    16468.365 
   30300   0.92554147  -0.11192224    4.3145626    5.0808115 0.0050044312    15881.914 
   30600   0.94597529  -0.12259425    4.2115473    4.9865123 -0.0023451967    16462.901 
   30900    1.0691704  -0.12459211    4.2077976    5.0976546  0.010208441    15976.626 
   31200    1.0602944  -0.11558777    4.1610006    5.0514401  0.013779284    15813.536 
   31500   0.95563475  -0.11823465    4.2128407    5.0013304 -0.0030380998    16122.714 
   31800     1.024879 -0.097667376    4.0156842    4.8904414 -0.0032305338    16579.645 
   32100    1.0419736  -0.12377338    4.2107682     5.075639 0.0056320817    16036.562 
   32400    1.0996077  -0.12255873    4.4580418    5.3788116 -0.0066056207    16197.903 
   32700    1.0501087   -0.1250436    4.2358864    5.1072058 0.0012589923    15963.466 
   33000   0.92213798   -0.1262165    4.2402895     4.989015 -0.0045248969    16136.299 
   33300   0.87252477   -0.1078214    4.1167997    4.8368463 -0.0070417161    16246.022 
   33600   0.99461173 -0.097468907    4.1042947    4.9505322 -0.0059652384    16631.213 
   33900    0.9434186  -0.11835179    4.2137128    4.9904944 -0.0039280403    15896.813 
   34200    1.0490397 -0.095516902    4.1265258    5.0263576 0.0016365561    15829.742 
   34500   0.91887852 -0.089515508    4.0613844    4.8437182 -0.0050885786    16141.525 
   34800   0.95507858  -0.11591999    4.0367405    4.8270171 0.0048830188    16345.387 
   35100   0.93489568  -0.10742945    4.2637728    5.0433901 -0.00065914948    15661.198 
   35400    1.0321521  -0.11553574    4.3127447    5.1765343 0.0016364409    15740.686 
   35700   0.95688078  -0.12322651    4.2907621    5.0754421 -0.0030683601     15498.79 
   36000   0.88582214  -0.10688277    4.1923164    4.9259185 -0.0083330092    15811.395 
   36300     1.083442 -0.091774332    4.3320389    5.2682548 -0.0098761717    16199.715 
   36600    1.1241458 -0.078354609    4.1815536    5.1698098 -0.00033251287    15835.088 
   36900   0.95627629  -0.12834004    4.3592575    5.1382505 -0.0041555752    16103.359 
   37200    1.0697448  -0.12359028    4.4549168    5.3463206 0.0035170956    16014.511 
   37500    1.0572083 -0.097122081    4.4228162    5.3287933 -0.012980671    16888.574 
   37800   0.90687068 -0.086659019    4.4877942    5.2615912 -0.0072531968    16586.716 
   38100    1.1396469  -0.10813333    4.4305697    5.4037548 0.0035887367    15873.704 
   38400    1.0385356 -0.088295939    4.2292394    5.1263257 0.0020770807    15569.782 
   38700    1.0496488  -0.12586726    4.2234988    5.0935581 -0.0017988387    16072.297 
   39000   0.99983612  -0.11886511    4.3999233    5.2297216 -0.0038682473    15835.868 
   39300    1.0043958  -0.11879726    4.5786604    5.4128528 0.00033519752     16223.12 
   39600    1.0401798 -0.079905532    4.4662332    5.3732699 -0.0012300516    15691.738 
   39900    1.1042809  -0.10813409    4.3403528    5.2799813 -0.0096693843    16028.596 
   40200   0.96635753  -0.12075113    4.4218658     5.218013 -0.0023863949    15543.666 
   40500   0.98151447  -0.10227651    4.3649164    5.1939194 0.0036074329    15593.778 
   40800    1.0133567   -0.1180625    4.4092643    5.2526938 0.0098698784    15270.003 
   41100    1.0568399  -0.12936523    4.4661712    5.3395556 0.0039674456    15760.933 
   41400   0.95411646  -0.12222648    4.2574346    5.0404918 0.0015757418    15338.042 
   41700   0.91219688  -0.10802914    4.4354063    5.1928868 -0.00057217297    15034.395 
   42000   0.95117543 -0.082865829    4.4603455    5.2799729 -0.0063983881    15420.438 
   42300   0.88492877 -0.079498499     4.378883    5.1390217  0.002752521    14617.233 
   42600    1.0210349   -0.1224966    4.2280096    5.0742901 0.0025160281    14718.814 
   42900   0.85972967  -0.10434151    4.3399297     5.051316 -0.013512402    15420.597 
   43200   0.94350364  -0.11014165    4.2985709    5.0836433  -0.00116427    14766.861 
   43500   0.86314688  -0.12005844    4.3094164     5.008328 0.00036313749    14856.352 
   43800   0.84170381  -0.11206587    4.3916206    5.0781793 0.00091618251    14914.017 
   44100    1.1450571  -0.12079774    4.3235958    5.2892499 0.0030790458    14955.628 
   44400    1.0730239  -0.11374095    4.4095754    5.3139398 -0.0070558221    15672.453 
   44700    0.8644999  -0.10737571    4.4161207    5.1289988 -0.0015898744    15164.657 
   45000   0.86526812  -0.10270628    4.4370299    5.1553064  0.020081406    14767.461 
   45300   0.84822406  -0.11240081    4.3602858     5.052696 3.6002341e-05    15229.906 
   45600    1.0147764   -0.1179404    4.3382378    5.1831364 -0.0023683183    15071.913 
   45900   0.75056939  -0.10835515    4.3565762    4.9603754 -0.014899942    15762.659 
   46200    1.0675385  -0.10374673    4.4138757    5.3230297 0.0081201433     15105.06 
   46500   0.97495039  -0.11550872    4.4178297    5.2273723 0.0019914933    15166.971 
   46800   0.94101287 -0.076484188    4.3833832    5.1997498 -0.0060297869    15478.123 
   47100    1.1647775  -0.10213552    4.2823762    5.2854036 -0.0014991607    15372.948 
   47400    1.1136386   -0.1082921    4.3860879    5.3344371 0.0077653539    15391.934 
   47700    0.9656033  -0.10221024    4.3401168    5.1540892 0.0060832413      15139.3 
   48000    1.1582889  -0.11887045    4.2203408    5.2004768 0.0027000154    15708.563 
   48300   0.98715707 -0.097871239    4.4446688    5.2834309 -0.005453226    16233.449 
   48600    1.1523433  -0.11178336    4.4150964    5.3966781 0.0069750494    15481.479 
   48900    1.0370707 -0.077766382    4.1034455    5.0096713 0.0087124896    15162.417 
   49200   0.92951275 -0.095283717    4.3192698    5.1059253 -0.008581208    15605.142 
   49500    1.1337686 -0.096744009    4.2977011    5.2766981 0.0029792745    15095.162 
   49800    1.0018304  -0.10807775    4.2556927    5.0981705 0.0036284595     15146.12 
   50100   0.88636463 -0.063893031    4.0572282    4.8343347  0.011918039    14866.607 
   50400    0.7941006 -0.082624579    4.1222789     4.793112 -0.0062243326    15414.777 
   50700    1.0129474  -0.08487403    4.0130707    4.8893003 0.0011631324    15403.865 
   51000    1.0241765  -0.11915652    4.1603467    5.0129482 -0.0037608924     15516.39 
   51300    1.0906787  -0.12525743    3.9850995    4.8946987 -0.0063988559    15742.412 
   51600    1.0279202  -0.11461794    3.9311321    4.7918243 -0.00077231192    15687.633 
   51900     1.182155  -0.12096332    4.0747564    5.0754442 0.0036987711     15206.81 
   52200    1.1007349  -0.11951127    4.0345957    4.9594824 0.00059566938    15570.225 
   52500    0.9734937  -0.13366373    4.2388963    5.0289018 -0.0063972637    15305.236 
   52800   0.96268299  -0.12491006    4.0456597    4.8341614 0.0098504688    15253.341 
   53100   0.92725929  -0.12139032    4.0327883    4.7911992 -0.0017664852    15393.435 
   53400    1.1015513  -0.12489303    4.0570516    4.9773312 0.0055342265     15085.62 
   53700    1.1152365  -0.10948541    4.1654136    5.1140857 0.0070289754    14501.843 
   54000    1.0043933  -0.13491424    4.2192353    5.0373084 -0.0038954662    14863.922 
   54300   0.89949737  -0.12151996    4.3633941    5.0953343 -0.0094725479    15373.562 
   54600    1.0877387  -0.13107945    4.1855958    5.0865834  0.021356316    14726.422 
   54900   0.93366335  -0.12390751    4.2408714    5.0028413 -0.0074368579    15740.189 
   55200   0.85649465  -0.11378043    4.2418024    4.9406803 0.0024163042    15554.331 
   55500   0.94664504  -0.11317653    4.2444197    5.0294379 -0.0013714336    15027.335 
   55800   0.96208654  -0.11789347    4.2230535    5.0180059 -0.0047554544    15276.684 
   56100   0.91631316  -0.13002361    4.4898446    5.2292362 -0.0057553954    15717.959 
   56400   0.88066553   -0.1233571    4.4181943    5.1304293  0.002663159    15202.197 
   56700   0.99885873  -0.12431687    4.3222655    5.1456847 -0.003952529    15198.186 
   57000   0.81337534  -0.12685632    4.4007931    5.0456826 0.0037772885    15054.379 
   57300    1.0398178  -0.12393642    4.2348517    5.0975141 0.0040965199    15627.687 
   57600   0.97649119  -0.11822622    4.3287468    5.1370339 -0.0016199111    15423.937 
   57900    0.9603707   -0.1152823    4.3456595    5.1415951 -0.0023882155    15961.439 
   58200     1.055126  -0.12962452    4.2811181    5.1526171 -0.0060332278    15718.976 
   58500    1.1884585  -0.11891143    4.3176353    5.3263557  0.013751489    15559.325 
   58800   0.87162412  -0.12327086    4.3187494    5.0224919 0.0045507406    15110.969 
   59100   0.89121412  -0.12353589    4.2694605    4.9915254 0.0010955236    15887.208 
   59400    0.8744636 -0.077011181    4.2763321    5.0290285 0.0017347559    15031.533 
   59700    1.0835481 -0.080954332    4.2326869    5.1798235 -0.006944852    16051.538 
   60000   0.87288524  -0.12114372    4.4015909    5.1086572 -0.00029950682    15627.897 
   60300    1.2174333  -0.10081093    4.3816547    5.4359675 -0.0075087575    15783.611 
   60600   0.91215224  -0.11068956    4.5942945    5.3490722 -0.00020278286    15955.303 
   60900    1.0145884  -0.11881547    4.4284968     5.272342  0.014704129    15407.564 
   61200   0.97911308  -0.13048537    4.4691421    5.2676577 -0.0056088147    16135.396 
   61500    1.2071234  -0.11930002    4.5812749    5.6073163 0.0042878423    16124.498 
   61800   0.90084264  -0.12885622    4.6074001    5.3332804 0.0018825222    15557.821 
   62100   0.91011961  -0.12701234    4.5325506    5.2690769 -0.0066916338    15781.133 
   62400    1.0996957  -0.12879366    4.5315448    5.4461632 -0.00013098381    15325.968 
   62700    1.0701406  -0.11479863    4.7040741    5.6046451 -0.0058057866    15818.314 
   63000    1.1171116  -0.12661484    4.6030062    5.5363279 0.0036858575    15854.266 
   63300    1.0856092  -0.10655028     4.462509    5.3860052 0.0094515824    15609.824 
   63600   0.95997217 -0.096033457    4.4736856    5.2884919 -3.035554e-05    15788.493 
   63900    1.0290525  -0.10132048     4.516354    5.3914179 -0.0045636642     16471.75 
   64200    1.1397233  -0.10926829    4.4557245    5.4278472 0.0041324038    16324.883 
   64500    1.1195678   -0.1286811    4.6369758    5.5705618 -0.0013422305     15866.63 
   64800    1.0358323  -0.11672061    4.6261799    5.4922765 -0.0050812306    16186.567 
   65100    1.0290029  -0.12065118    4.6780752    5.5337615 -0.0050534503    15709.324 
   65400   0.91401549  -0.11124097    4.7256816    5.4816758 -0.0025657851    15225.624 
   65700    1.0727664  -0.11865431    4.6177858    5.5169925 0.0039717034    15938.354 
   66000   0.87043367 -0.099896641    4.7738613    5.4998486 0.0068753775    15745.781 
   66300    1.1137729  -0.09840824    4.6533745    5.6117351 -0.0047626544    15809.893 
   66600    1.0467685  -0.12824318    4.7359698    5.6009204 -0.0089850468     16048.79 
   66900   0.93767612   -0.1245928    4.7718119    5.5369039 -0.0048282359    15883.646 
   67200    1.0097637   -0.1123464    4.8443031    5.6900395 0.0047536954    15623.579 
   67500    1.0374288  -0.12430995    4.8488434    5.7088655  0.012215739    15782.273 
   67800    1.0603817  -0.11127217    4.8427542    5.7375923 0.0032855609    15750.132 
   68100   0.93025308 -0.089792689    4.9731939    5.7660429  0.014265998     15396.64 
   68400     1.071793 -0.076978924      5.02539    5.9653486 0.0082283845    15456.225 
   68700   0.98266722  -0.08164986    4.9897417     5.840465 -0.0065509227    15968.561 
   69000    1.0614132  -0.12977377    5.1487081    6.0260233 -0.0019123239    15903.974 
   69300   0.98410981 -0.097665714    4.9384821    5.7745584 -0.0026904321    15293.669 
   69600   0.87946298  -0.10389713    4.8503752    5.5809292 -0.0091645443    15399.833 
   69900   0.89839502  -0.12625004    4.9031684    5.6293325 -0.0036366324    15440.766 
   70200   0.78962435  -0.12648687    5.0999095    5.7226331 0.0067681564    14876.001 
   70500    1.0148956  -0.11377441    4.9465351    5.7957128 0.0094423643    15604.017 
   70800    1.0112573   -0.1047271    5.1162781     5.971051 -0.0013491023    15839.293 
   71100   0.96953789  -0.12584705    5.2471704    6.0412392 -0.0018924797    15773.191 
   71400    1.0898621  -0.10355058    5.1393505    6.0698817 -0.0029392196    15450.372 
   71700   0.93463817  -0.12346348    5.1506141    5.9139529 0.0046605521    15514.135 
   72000   0.93090041  -0.12830706     5.178733    5.9336819 -0.004123787    15451.066 
   72300    1.0931179  -0.11567589    5.1409428    6.0624378 4.5737582e-07    15821.254 
   72600   0.85277358  -0.11373408    5.1967759    5.8921695 -0.0087744746      15582.1 
   72900   0.93924448   -0.1261213    5.1947711    5.9598227 -0.0056125911    16017.365 
   73200    1.0043614  -0.12164922    4.9971786    5.8284864 0.0031975148    15373.638 
   73500    1.1933599   -0.1167823    5.1240808    6.1395809 -0.0031444201     15748.01 
   73800     1.103225 -0.094090764    5.0856461     6.038316 -0.0016327873    15651.752 
   74100    1.0319927  -0.12789813    5.0719132    5.9231893 0.0028554826    15544.358 
   74400    1.0262985  -0.13296881    5.1357275    5.9765301 -0.0021690077    16167.143 
   74700    1.0682841  -0.13346367    5.1039214    5.9840658 0.00026422871    16157.239 
   75000   0.89861046  -0.12254609     5.278546    6.0086185 -0.0016497716    15752.663 
   75300   0.95645152  -0.10967933    5.1814746    5.9792945 -0.0041626674    15996.804 
   75600    1.1452857 -0.088244329    5.2869957      6.28542 0.0029484462    15910.425 
   75900   0.90685368  -0.11395901    5.0087881     5.755269 -0.0045382579    15511.316 
   76200    1.0093843   -0.1247623    5.1712138    6.0041744  0.014995595    15227.886 
   76500   0.93262301  -0.12784018    5.0998511    5.8569012 -0.010939334    15793.617 
   76800    1.0407885 -0.099020604    5.0145917    5.9030909 -0.00064680253     14997.55 
   77100   0.96318028  -0.10283202     5.169268    5.9803196 -0.00040946743    15067.192 
   77400    1.0573169  -0.12561238    5.1718198    6.0494097 0.0083213686     15047.27 
   77700   0.80831233  -0.11154349    5.2039453    5.8593438 -0.0063763711    15063.731 
   78000   0.98300127  -0.12028338    5.1444512     5.956858 -0.0060716653    15108.857 
   78300   0.84679919   -0.1135606    5.1438324    5.8337309 0.0031311848    14649.201 
   78600   0.97698262  -0.10872429    5.2617929    6.0800481 -0.0033108157    14739.311 
   78900    0.9889605  -0.10666724    5.2623598     6.094037 -0.008929174    14978.408 
   79200   0.90685013 -0.079158152    5.0450071    5.8262855 -0.010235081    14925.794 
   79500    1.1008293  -0.12033735    5.1712685    6.0954188 -0.0067161023    14418.871 
   79800   0.91375132  -0.08030537    5.0905259     5.877205 -0.0044201286    14437.907 
   80100   0.85773686  -0.10035006    5.2117447    5.9252316 -0.0053262083    13946.844 
   80400   0.94175038 -0.090951256    5.1959346    5.9985339 -0.0089987721    14383.994 
   80700   0.95658494  -0.11575924     5.133622    5.9254886 0.0020557261    14303.627 
   81000    1.0529196  -0.12400209    5.1701199    6.0451478 0.0093452084    14490.817 
   81300    1.0159207  -0.10173289    5.1611134    6.0233052  0.010141682    14924.839 
   81600   0.82043968    -0.101389    5.1538215    5.8308812 -0.0047693041    15124.281 
   81900    1.0661384  -0.10316127    5.1369601    6.0453711 0.0053171362    14880.506 
   82200   0.98639485  -0.10882714    5.2332297    6.0603127 0.0078432666    14523.533 
   82500   0.97516112  -0.13049363    5.1884685    5.9832262 -0.0011678608    14872.377 
   82800   0.94522621   -0.1213842    5.1631982    5.9386624 -0.0099773951    15682.555 
   83100    1.0608763  -0.13776126    5.2651838     6.134002  0.001791662    14783.463 
   83400   0.93065499   -0.1144145    5.1834172    5.9520258 -0.00072800057    14993.647 
   83700    1.1163874  -0.12512144    5.2653889     6.199517 0.00067468941    15634.327 
   84000   0.84476759   -0.0961908    5.2421794    5.9475201  0.015154214    15110.063 
   84300   0.97413806  -0.13339373      5.19254    5.9834268 -0.0085163853    15712.132 
   84600    1.0958651  -0.11140458    5.1448513    6.0732243 -0.0031130453    15662.511 
   84900   0.85790833  -0.12477997     5.128963    5.8181827  0.005566013    15130.669 
   85200   0.89945337  -0.11217354    5.2206879    5.9619327 -0.0012382056    15169.098 
   85500    1.1020258  -0.11327885    5.2763716    6.2087157  0.012524211     14818.26 
   85800    1.0920219  -0.13916743    5.3968608    6.2938244 -0.0032060029    15091.996 
   86100    1.0180096  -0.11257043    5.3164902    6.1698265 -0.008805562    15165.997 
   86400   0.91540903  -0.12549718    5.3828049    6.1258651 -0.0041601784    14874.445 
   86700    1.0204098  -0.10606995    5.3217367    6.1838509 0.0053908848    15263.041 
   87000    1.0547623  -0.10178925     5.366724    6.2657132 -0.0049440977    14938.811 
   87300    1.0489325  -0.11491122    5.1977792     6.078115  0.011165509    14975.322 
   87600    0.9916271  -0.12299698    5.2592386    6.0771162  0.012589313    14856.357 
   87900   0.94715798   -0.1288336    5.2949287    6.0647765 -0.0058438613    15369.095 
   88200    1.0414596  -0.11364124    5.3276341    6.2021493 0.0023249663    15072.645 
   88500   0.95600993  -0.12485718     5.344973    6.1271961 -0.010186323    15302.139 
   88800    1.0066149  -0.12322936    5.2482772     6.080143 -0.0062018786    15051.502 
   89100   0.93880807  -0.11285053     5.376173    6.1540814 0.0074401824    14117.323 
   89400   0.94098647  -0.11520827    5.2229356    6.0005531 -0.005253958    14903.417 
   89700   0.98432239  -0.12512443    5.3120504    6.1208697 0.0058830068    14909.883 
   90000   0.94833386  -0.13126306    5.2483855    6.0169195 -0.00040356653    14843.089 
   90300   0.97079539 -0.094926248    5.2867714    6.1129541 -0.010864313    15480.155 
   90600   0.89039953 -0.068221153    5.3118846    6.0884913 -0.0075008616    15076.556 
   90900   0.89521007  -0.11063489    5.2382391    5.9769964   -0.0136581    15418.099 
   91200   0.90535202 -0.093510652    5.2298488    5.9953533 -0.0074914397     15055.79 
   91500    1.0398533  -0.12023317    5.1241095    5.9905088 0.0066001354    14704.591 
   91800    0.9117437 -0.086785399    5.3045418     6.082836 0.0025538281    14887.644 
   92100     1.099874  -0.12077341    5.2287804    6.1515882 -0.0023605016    14987.065 
   92400   0.98990354  -0.12556615    5.2508404    6.0645134  0.014294961    14414.079 
   92700   0.85714131  -0.09133751    5.3386678    6.0606021 -0.0070758209    15208.403 
   93000   0.98767398  -0.11851719    5.2710406    6.0896471 -0.0041097457    14785.603 
   93300      1.03814  -0.09980531    5.3351749    6.2203764 -0.0084259326    14701.507 
   93600    1.0327492 -0.086387042    5.3639068    6.2574118 -0.002666073    14860.026 
   93900    1.0034078 -0.082948485    5.4408624    6.3099662 0.0049680691    13826.421 
   94200   0.96028651  -0.11570082     5.306569    6.1020062 0.0029218673    14296.757 
   94500   0.91801408  -0.12283786    5.3546024    6.1027936 -0.00074853165    14446.405 
   94800   0.73817597  -0.10284461    5.5130498    6.1106005 -0.015054926    14679.979 
   95100    0.8399244  -0.12186663    5.4065229    6.0815924 -0.012742992    14761.573 
   95400   0.94069654  -0.10344485    5.3882023    6.1773081 0.0088062247    14007.705 
   95700   0.89916158 -0.095216598    5.4047475    6.1626724 -0.010187191    14601.251 
   96000   0.97018399 -0.089890292    5.3941283    6.2247669 -0.0042089003    14587.513 
   96300    0.9891711  -0.12840012    5.2604403    6.0705844 -0.0078532925    14390.343 
   96600    0.8922775  -0.10203966    5.3090406    6.0536107 -0.0052764899    14160.065 
   96900   0.92055538  -0.12198151     5.401803    6.1532618 0.0012068647    14076.502 
   97200   0.95243526  -0.10413078    5.1962172     5.995775 -0.00090784938    14660.772 
   97500    1.0102837  -0.10405911    5.2757789    6.1302961 -0.0036992807     14699.73 
   97800   0.87213106  -0.12376697    5.2683948    5.9721223 -0.00074068109    14754.307 
   98100   0.94114561  -0.10914959    5.2731113    6.0569384   0.00527282    14654.325 
   98400   0.82434115  -0.07451701    5.2857406     5.993374   0.01753754    14781.005 
   98700    1.0352228  -0.10101388    5.1836268    6.0648519 0.0017629241    14381.691 
   99000    0.9640022  -0.11366047    5.1460836    5.9470867 -0.0043852938    14978.239 
   99300   0.98996608  -0.12276554    5.2169194    6.0334524 0.0073359269     14864.21 
   99600    1.0015207 -0.068224012     5.206978    6.0890157 -0.0025208027    14968.123 
   99900    0.9143448  -0.10848999    5.3225961    6.0816537 -0.015063583    15597.237 
  100000   0.95007283  -0.12100848    5.3932572    6.1736958 0.0088285089    14674.525 
Loop time of 4.05381 on 1 procs for 100000 steps with 127 atoms

Performance: 10656649.416 tau/day, 24668.170 timesteps/s
96.7% CPU use with 1 MPI tasks x no OpenMP threads

MPI task timing breakdown:
Section |  min time  |  avg time  |  max time  |%varavg| %total
---------------------------------------------------------------
Pair    | 0.11231    | 0.11231    | 0.11231    |   0.0 |  2.77
Bond    | 1.582      | 1.582      | 1.582      |   0.0 | 39.02
Neigh   | 0.69433    | 0.69433    | 0.69433    |   0.0 | 17.13
Comm    | 0.07341    | 0.07341    | 0.07341    |   0.0 |  1.81
Output  | 0.16872    | 0.16872    | 0.16872    |   0.0 |  4.16
Modify  | 1.294      | 1.294      | 1.294      |   0.0 | 31.92
Other   |            | 0.1291     |            |       |  3.18

Nlocal:    127 ave 127 max 127 min
Histogram: 1 0 0 0 0 0 0 0 0 0
Nghost:    8 ave 8 max 8 min
Histogram: 1 0 0 0 0 0 0 0 0 0
Neighs:    8 ave 8 max 8 min
Histogram: 1 0 0 0 0 0 0 0 0 0

Total # of neighbors = 8
Ave neighs/atom = 0.0629921
Ave special neighs/atom = 5.66929
Neighbor list builds = 29078
Dangerous builds = 495
Total wall time: 0:00:04
